%mem=10GB 
%nprocshared=8 
# opt=modredundant b3lyp/6-311+g(d,p) 

 pg2T_TT_35.pdb

0  1
C          -4.25000        -1.36000        -0.21000
C          -2.93000        -0.95000        -0.61000
C          -1.97000        -2.05000        -0.62000
C          -4.33000        -2.76000         0.10000
S          -2.80000        -3.56000        -0.11000
H          -5.23000        -3.27000         0.41000
C          -0.56000        -2.13000        -0.97000
S           0.57700        -0.78700        -0.64000
C           1.92000        -1.64900        -1.30700
C           1.55500        -2.96500        -1.76500
C           0.16600        -3.25400        -1.56500
H          -0.25300        -4.23900        -1.69300
S           2.89100        -4.06900        -1.75600
C           3.97700        -2.81200        -1.15900
C           3.29600        -1.55500        -0.94500
H           4.98000        -3.02800        -0.82000
H           3.71300        -0.75800        -0.33600
H          -2.89000         0.24000        -0.97000
O          -5.60000        -0.36000        -0.40000
H          -5.76000         0.85000        -0.75000

D 2 3 7 8 F

