%mem=10GB 
%nprocshared=8 
# opt=modredundant b3lyp/6-311+g(d,p) 

 pg2T_TT_115.pdb

0  1
C          -4.25000        -1.36000        -0.21000
C          -2.93000        -0.95000        -0.61000
C          -1.97000        -2.05000        -0.62000
C          -4.33000        -2.76000         0.10000
S          -2.80000        -3.56000        -0.11000
H          -5.23000        -3.27000         0.41000
C          -0.56000        -2.13000        -0.97000
S           0.69700        -2.52400         0.24200
C           1.97200        -2.42400        -0.92300
C           1.48400        -2.12100        -2.24500
C           0.06000        -1.97100        -2.28700
H          -0.49700        -1.90500        -3.20900
S           2.53700        -2.69900        -3.49400
C           3.66400        -3.34600        -2.29900
C           3.20700        -3.13500        -0.94400
H           4.49200        -3.98600        -2.57000
H           3.60600        -3.68700        -0.09700
H          -2.89000         0.24000        -0.97000
O          -5.60000        -0.36000        -0.40000
H          -5.76000         0.85000        -0.75000

D 2 3 7 8 F

