%mem=10GB 
%nprocshared=8 
# opt=modredundant wb97xd/6-311+g(d,p) 

 NDI_20.pdb

0  1
C          -2.56300        -2.99400        -0.40900
C          -2.25700        -1.55100        -0.22400
C          -3.30100        -0.60700        -0.08300
C          -4.65000        -1.02400        -0.11500
C          -4.99200        -2.45900        -0.30400
C          -0.94900        -1.13700        -0.21500
C          -2.96200         0.76400         0.10200
C          -1.59500         1.18800         0.12300
C          -0.56100         0.23200        -0.07200
C          -1.32800         2.61600         0.44600
C          -3.77700         3.11500         0.50800
C          -4.03500         1.67900         0.26800
C          -5.35600         1.25200         0.23000
C          -5.67200        -0.09800         0.03600
H          -6.69900        -0.44200         0.00800
H          -6.13300         1.99700         0.36100
H          -0.19000        -1.89500        -0.36900
N          -2.43200         3.47600         0.60800
N          -3.91600        -3.35300        -0.43800
O          -1.69500        -3.84700        -0.53200
O          -6.14900        -2.85000        -0.34000
O          -4.67600         3.93800         0.62900
O          -0.21200         3.09700         0.59600
C          -2.11100         4.87500         0.91200
H          -1.54000         4.93100         1.84000
H          -1.50000         5.29900         0.11100
H          -3.05000         5.41400         1.00300
C          -4.20600        -4.77900        -0.62500
H          -3.75900        -5.12600        -1.55900
H          -3.77500        -5.35500         0.19600
H          -5.28600        -4.89700        -0.64900
C           0.87600         0.48200        -0.17800
C           1.63800         1.56100         0.22500
S           1.87200        -0.65700        -1.08400
C           2.98600         1.47900        -0.17400
H           1.23400         2.38000         0.79900
C           3.30700         0.32400        -0.89500
O           3.96100         2.39300         0.07600
C           4.59300        -0.06700        -1.39900
C           3.63600         3.48400         0.93300
C           4.90500        -1.20700        -2.13700
S           6.05400         0.88400        -1.14800
H           4.56000         4.04600         1.06800
H           2.87900         4.13500         0.47700
H           3.27300         3.13000         1.90500
C           6.28100        -1.31300        -2.49100
O           3.92000        -2.09000        -2.44500
C           7.01200        -0.25500        -2.02300
H           6.70500        -2.12800        -3.06200
C           4.26300        -3.22700        -3.23000
H           8.07200        -0.08200        -2.14800
H           4.99600        -3.86000        -2.71500
H           3.33800        -3.78600        -3.37100
H           4.66200        -2.92900        -4.20700

D 8 9 32 33 F

