%mem=100GB 
%nprocshared=16 
# opt=modredundant mp2/aug-cc-pvdz 

 pBTTT_5.pdb

0  1
C          -4.04200         0.25700        -0.02600
C          -2.72100         0.83300        -0.04700
C          -1.74900        -0.12200        -0.00800
C          -2.53000         2.33000        -0.10800
C          -4.05100        -1.08800         0.03000
H          -4.94000         0.85600        -0.05400
S          -2.45000        -1.72500         0.06300
H          -4.90200        -1.74600         0.05300
C          -0.28400        -0.00500        -0.00500
S           0.54100         1.55300         0.07200
C           2.09100         0.77700         0.04000
C           1.95800        -0.57800        -0.02700
C           0.60400        -1.03200        -0.05500
H           0.31600        -2.06800        -0.11100
S           3.51100        -1.35700        -0.06500
C           4.31000         0.19200         0.01300
C           3.45100         1.23200         0.06300
H           5.38600         0.23600         0.01700
H           3.75900         2.26400         0.11500
H          -3.49800         2.82000        -0.20000
H          -1.92500         2.62500        -0.96400
H          -2.05000         2.71200         0.79200

D 2 3 9 10 F

