%mem=100GB 
%nprocshared=16 
# opt=modredundant mp2/aug-cc-pvdz 

 pBTTT_-60.pdb

0  1
C          -4.01400         0.30900         0.33100
C          -2.66100         0.77600         0.50900
C          -1.75400        -0.11600         0.03700
C          -2.35400         2.09100         1.17700
C          -4.09400        -0.90100        -0.25800
H          -4.87800         0.87200         0.65100
S          -2.53200        -1.52800        -0.63700
H          -4.98200        -1.46400        -0.48900
C          -0.28300        -0.02800         0.00700
S           0.52000         1.27300        -0.86400
C           2.07800         0.63400        -0.44100
C           1.95600        -0.50400         0.29900
C           0.60000        -0.89000         0.56000
H           0.30200        -1.75300         1.13300
S           3.51400        -1.14500         0.72500
C           4.30100         0.16100        -0.12100
C           3.43700         1.02700        -0.68900
H           5.37700         0.20500        -0.14700
H           3.73800         1.89400        -1.25300
H          -2.92000         2.18000         2.10500
H          -2.63800         2.92700         0.53600
H          -1.29800         2.18700         1.41100

D 2 3 9 10 F

