%mem=100GB 
%nprocshared=16 
# opt=modredundant mp2/aug-cc-pvdz 

 pBTTT_75.pdb

0  1
C           3.99700         0.35600         0.43300
C           2.62700         0.77500         0.59600
C           1.76000        -0.10800         0.02800
C           2.23200         2.02400         1.34600
C           4.12700        -0.81300        -0.24300
H           4.83500         0.91800         0.81600
S           2.59400        -1.44900        -0.71300
H           5.03600        -1.33400        -0.49100
C           0.28600        -0.03900        -0.01700
S          -0.52200         1.08100        -1.10700
C          -2.07700         0.53300        -0.56300
C          -1.95000        -0.44800         0.37600
C          -0.59200        -0.78200         0.69300
H          -0.28800        -1.52700         1.41000
S          -3.50400        -0.99900         0.92200
C          -4.29800         0.12700        -0.14900
C          -3.43700         0.87200        -0.87200
H          -5.37400         0.16600        -0.17600
H          -3.74200         1.62000        -1.58600
H           3.11100         2.62200         1.57800
H           1.73800         1.77300         2.28500
H           1.54700         2.64000         0.76600

D 2 3 9 10 F

