%mem=100GB 
%nprocshared=16 
# opt=modredundant mp2/aug-cc-pvdz 

 pBTTT_35.pdb

0  1
C           4.03300         0.26900         0.18000
C           2.70300         0.81000         0.31500
C           1.74900        -0.12100         0.04000
C           2.48100         2.23800         0.74500
C           4.05900        -1.02600        -0.19000
H           4.92300         0.85000         0.37100
S           2.46700        -1.65200        -0.41000
H           4.92100        -1.65300        -0.34500
C           0.28300        -0.01300         0.01900
S          -0.52800         1.45600        -0.51400
C          -2.08400         0.72800        -0.26700
C          -1.95800        -0.55300         0.18400
C          -0.60300        -0.98200         0.35400
H          -0.30900        -1.95400         0.71700
S          -3.51400        -1.28100         0.44000
C          -4.30500         0.18500        -0.07800
C          -3.44200         1.16400        -0.42100
H          -5.38100         0.22900        -0.09800
H          -3.74500         2.13900        -0.76600
H           3.29600         2.55900         1.39300
H           1.54900         2.35700         1.29200
H           2.45800         2.91100        -0.11400

D 2 3 9 10 F

