%mem=100GB 
%nprocshared=16 
# opt=modredundant mp2/aug-cc-pvdz 

 pBTTT_-85.pdb

0  1
C           3.98800         0.42500        -0.42600
C           2.61100         0.84100        -0.54100
C           1.75900        -0.09300        -0.05300
C           2.21500         2.16200        -1.14400
C           4.13500        -0.79000         0.14000
H           4.81800         1.02800        -0.76300
S           2.61400        -1.48800         0.56000
H           5.05300        -1.32000         0.33300
C           0.28400        -0.04200         0.01000
S          -0.52200         0.75000         1.35800
C          -2.07800         0.36400         0.69100
C          -1.95100        -0.32900        -0.47800
C          -0.59400        -0.56800        -0.87200
H          -0.28900        -1.09800        -1.76000
S          -3.50700        -0.71600        -1.14800
C          -4.29900         0.08000         0.18700
C          -3.43800         0.60500         1.08200
H          -5.37500         0.10800         0.22500
H          -3.74200         1.13300         1.97100
H           2.59200         2.24200        -2.16500
H           2.63900         2.98700        -0.57000
H           1.13600         2.28100        -1.16800

D 2 3 9 10 F

