%mem=100GB 
%nprocshared=16 
# opt=modredundant mp2/aug-cc-pvdz 

 pBTTT_-20.pdb

0  1
C          -4.04000         0.25800         0.10200
C          -2.71600         0.82500         0.18500
C          -1.74900        -0.12100         0.02900
C          -2.51800         2.30000         0.43500
C          -4.05100        -1.07100        -0.11700
H          -4.93600         0.84900         0.21400
S          -2.45200        -1.70100        -0.24600
H          -4.90400        -1.72000        -0.20900
C          -0.28400        -0.00700         0.01700
S           0.53600         1.52300        -0.29500
C           2.08800         0.76100        -0.15800
C           1.95800        -0.57000         0.10800
C           0.60300        -1.01500         0.21400
H           0.31300        -2.02900         0.43300
S           3.51200        -1.33200         0.25700
C           4.30800         0.19000        -0.04900
C           3.44800         1.21000        -0.24900
H           5.38400         0.23400        -0.06200
H           3.75400         2.22300        -0.45200
H          -3.44300         2.73700         0.81000
H          -2.25200         2.82800        -0.48100
H          -1.73800         2.48500         1.17000

D 2 3 9 10 F

