%mem=100GB 
%nprocshared=16 
# opt=modredundant mp2/aug-cc-pvdz 

 pBTTT_-95.pdb

0  1
C           3.98900         0.66800         0.06100
C           2.60200         0.99800         0.29600
C           1.76600        -0.01400        -0.10200
C           2.15600         2.29600         0.92700
C           4.16200        -0.56900        -0.49600
H           4.80500         1.33300         0.30200
S           2.65300        -1.37100        -0.75600
H           5.08800        -1.04500        -0.76800
C           0.29000        -0.04800        -0.02900
S          -0.51700        -0.80100         1.34300
C          -2.07700        -0.42000         0.67300
C          -1.95800         0.23800        -0.52500
C          -0.59800         0.45200        -0.93800
H          -0.29600         0.94000        -1.85000
S          -3.51700         0.61800        -1.20100
C          -4.31200        -0.12700         0.16300
C          -3.43900        -0.63800         1.08300
H          -5.38800        -0.14500         0.20600
H          -3.74100        -1.13500         1.99000
H           2.98600         2.99800         0.98200
H           1.78900         2.13100         1.94100
H           1.35500         2.76100         0.35700

D 2 3 9 10 F

