%mem=100GB 
%nprocshared=16 
# opt=modredundant mp2/aug-cc-pvdz 

 pBTTT_40.pdb

0  1
C           4.03000         0.27600         0.20700
C           2.69600         0.80400         0.35600
C           1.75000        -0.12100         0.04100
C           2.46100         2.21200         0.84200
C           4.06400        -1.00500        -0.21000
H           4.91600         0.85300         0.42400
S           2.47600        -1.63100        -0.46000
H           4.93000        -1.62100        -0.38200
C           0.28300        -0.01600         0.01800
S          -0.52600         1.42700        -0.58600
C          -2.08200         0.71300        -0.30200
C          -1.95800        -0.54500         0.20800
C          -0.60300        -0.96800         0.39800
H          -0.30800        -1.92200         0.80400
S          -3.51400        -1.26000         0.49800
C          -4.30400         0.18200        -0.08600
C          -3.44000         1.14300        -0.47500
H          -5.38000         0.22700        -0.10800
H          -3.74300         2.10100        -0.86400
H           3.22700         2.48500         1.56700
H           1.49100         2.32000         1.31800
H           2.51700         2.92700         0.01900

D 2 3 9 10 F

