%mem=100GB 
%nprocshared=16 
# opt=modredundant mp2/aug-cc-pvdz 

 pBTTT_80.pdb

0  1
C           3.99400         0.36600         0.44200
C           2.62000         0.77900         0.60400
C           1.75800        -0.10300         0.04100
C           2.23900         2.04300         1.32700
C           4.12800        -0.79700        -0.22700
H           4.83000         0.93100         0.82500
S           2.59900        -1.44500        -0.69600
H           5.04000        -1.31500        -0.47000
C           0.28400        -0.03900        -0.01000
S          -0.52100         0.97700        -1.20000
C          -2.07700         0.48000        -0.61200
C          -1.95200        -0.40800         0.41500
C          -0.59500        -0.71200         0.76400
H          -0.29200        -1.38900         1.54700
S          -3.50900        -0.90600         1.00600
C          -4.29900         0.11300        -0.16700
C          -3.43700         0.78800        -0.95500
H          -5.37500         0.14900        -0.20100
H          -3.74000         1.46400        -1.73700
H           2.64100         2.91600         0.81200
H           2.64800         2.03900         2.33900
H           1.16000         2.15200         1.39500

D 2 3 9 10 F

