%mem=100GB 
%nprocshared=16 
# opt=modredundant mp2/aug-cc-pvdz 

 pBTTT_-150.pdb

0  1
C           3.96000         0.76200         0.02900
C           2.57400         1.09900         0.23000
C           1.75600         0.03400         0.00900
C           2.15200         2.47800         0.66800
C           4.15800        -0.52100        -0.33300
H           4.76300         1.47000         0.16900
S           2.67000        -1.38200        -0.46100
H           5.09400        -1.01700        -0.52800
C           0.28900        -0.02300         0.04600
S          -0.52900        -1.51400         0.50800
C          -2.08100        -0.78600         0.23300
C          -1.94800         0.50700        -0.17800
C          -0.59200         0.94800        -0.29900
H          -0.29800         1.92000        -0.65600
S          -3.50100         1.23800        -0.45200
C          -4.29900        -0.24500         0.00400
C          -3.44100        -1.22900         0.34200
H          -5.37500        -0.29400        -0.00700
H          -3.74900        -2.21500         0.65000
H           2.92700         2.92500         1.29000
H           1.23000         2.44900         1.24300
H           1.99900         3.13800        -0.18800

D 2 3 9 10 F

