%mem=100GB 
%nprocshared=16 
# opt=modredundant mp2/aug-cc-pvdz 

 pBTTT_50.pdb

0  1
C           4.02300         0.29200         0.26700
C           2.68000         0.79100         0.43500
C           1.75100        -0.11900         0.04000
C           2.41200         2.15400         1.02000
C           4.07800        -0.95600        -0.23900
H           4.89900         0.86200         0.53600
S           2.50100        -1.58300        -0.55300
H           4.95400        -1.54700        -0.44500
C           0.28300        -0.02200         0.01400
S          -0.52200         1.35800        -0.72500
C          -2.08000         0.67800        -0.37200
C          -1.95700        -0.52800         0.25400
C          -0.60200        -0.93500         0.47900
H          -0.30600        -1.84700         0.97000
S          -3.51500        -1.20900         0.61200
C          -4.30300         0.17300        -0.10400
C          -3.43800         1.09200        -0.58200
H          -5.37800         0.21800        -0.12700
H          -3.73900         2.01000        -1.05900
H           3.07500         2.33000         1.86700
H           1.38700         2.25100         1.36400
H           2.60000         2.93800         0.28400

D 2 3 9 10 F

