%mem=100GB 
%nprocshared=16 
# opt=modredundant mp2/aug-cc-pvdz 

 pBTTT_-105.pdb

0  1
C           3.97000         0.67200         0.16100
C           2.58100         0.96200         0.42900
C           1.75900         0.01500        -0.08900
C           2.15000         2.17600         1.20600
C           4.15500        -0.47000        -0.52900
H           4.77900         1.30600         0.49000
S           2.65800        -1.24700        -0.89700
H           5.08900        -0.90400        -0.84700
C           0.28600        -0.04100        -0.03200
S          -0.52400        -1.16400         1.05400
C          -2.07800        -0.60200         0.52000
C          -1.94900         0.37800        -0.42100
C          -0.59000         0.70000        -0.74600
H          -0.28300         1.43500        -1.47200
S          -3.50200         0.94100        -0.95800
C          -4.29800        -0.17800         0.11800
C          -3.43900        -0.92900         0.83700
H          -5.37400        -0.20900         0.15100
H          -3.74600        -1.67500         1.55300
H           2.66400         2.21200         2.16800
H           1.08000         2.17300         1.38900
H           2.40300         3.08900         0.66400

D 2 3 9 10 F

