%mem=100GB 
%nprocshared=16 
# opt=modredundant mp2/aug-cc-pvdz 

 pBTTT_95.pdb

0  1
C          -3.97800         0.64700         0.07000
C          -2.59500         0.97900         0.31100
C          -1.76000        -0.00700        -0.09900
C          -2.17700         2.27600         0.95100
C          -4.14700        -0.56300        -0.50000
H          -4.79700         1.30400         0.32500
S          -2.63900        -1.35700        -0.77600
H          -5.07300        -1.03600        -0.77700
C          -0.28500        -0.04100        -0.02700
S           0.52300        -0.82000         1.32800
C           2.07800        -0.42900         0.66000
C           1.95000         0.24900        -0.51700
C           0.59100         0.47100        -0.91800
H           0.28500         0.97800        -1.81800
S           3.50400         0.64200        -1.18700
C           4.29900        -0.13000         0.16100
C           3.43900        -0.65200         1.06000
H           5.37500        -0.15000         0.20300
H           3.74400        -1.16700         1.95600
H          -2.64400         2.38400         1.93100
H          -2.49300         3.12300         0.34000
H          -1.10000         2.32800         1.07800

D 2 3 9 10 F

