%mem=100GB 
%nprocshared=16 
# opt=modredundant mp2/aug-cc-pvdz 

 pBTTT_130.pdb

0  1
C          -3.96000         0.73700         0.10800
C          -2.57000         1.04600         0.33900
C          -1.75700         0.02700        -0.04200
C          -2.13800         2.35000         0.95700
C          -4.16000        -0.48600        -0.42200
H          -4.76300         1.41700         0.35100
S          -2.67100        -1.32000        -0.68100
H          -5.09700        -0.95100        -0.67400
C          -0.28800        -0.03500        -0.00200
S           0.52800        -1.41400         0.72700
C           2.08000        -0.73200         0.35000
C           1.94700         0.47000        -0.28100
C           0.58800         0.87100        -0.49400
H           0.28300         1.77000        -1.00400
S           3.49800         1.15300        -0.66000
C           4.29800        -0.22200         0.05600
C           3.44100        -1.14000         0.54900
H           5.37400        -0.26500         0.06600
H           3.75000        -2.05500         1.02700
H          -2.79200         2.60400         1.79100
H          -2.20000         3.16400         0.23200
H          -1.11800         2.29900         1.32500

D 2 3 9 10 F

