%mem=480GB 
%nprocshared=40 
# mp2/aug-cc-pvdz MaxDisk=400GB 

 NDI_-125_b3lyp.pdb

0  1
C          -3.52500        -2.70100         0.44800
C          -2.77000        -1.45700         0.14300
C          -3.43200        -0.20900         0.12300
C          -4.81200        -0.11900         0.40700
C          -5.59400        -1.34200         0.73100
C          -1.41600        -1.52100        -0.08800
C          -2.69000         0.96000        -0.19800
C          -1.29900         0.87100        -0.48400
C          -0.64100        -0.36300        -0.36700
C          -0.61700         2.08400        -1.02000
C          -2.64500         3.45500        -0.54900
C          -3.37000         2.20300        -0.21700
C          -4.72200         2.27000         0.07400
C          -5.44800         1.11100         0.38400
H          -6.50600         1.15900         0.60700
H          -5.20500         3.23900         0.05600
H          -0.92100        -2.48100        -0.01700
N          -1.30600         3.30700        -0.92000
N          -4.89100        -2.55900         0.72500
O          -3.00500        -3.80100         0.46200
O          -6.78300        -1.30100         0.98600
O          -3.18400         4.54700        -0.52200
O           0.47500         2.06100        -1.55300
C          -0.57400         4.50100        -1.36800
H           0.42200         4.49600        -0.93000
H          -0.47300         4.49700        -2.45500
H          -1.13500         5.37500        -1.05200
C          -5.62400        -3.79600         1.03200
H          -5.55800        -4.48100         0.18700
H          -5.18100        -4.27900         1.90300
H          -6.65800        -3.53100         1.22800
C           0.80900        -0.56700        -0.47600
C           1.45900        -1.42900        -1.32600
S           1.92800         0.23500         0.59000
C           2.86300        -1.42300        -1.14600
H           0.94200        -2.01500        -2.07300
C           3.30400        -0.58000        -0.13100
O           3.77200        -2.14900        -1.85100
C           4.65400        -0.38400         0.32900
C           3.28800        -3.02200        -2.86600
C           5.09200         0.45500         1.34600
S           6.03400        -1.22200        -0.36800
H           4.16800        -3.50300        -3.29100
H           2.62300        -3.78500        -2.44700
H           2.76500        -2.46400        -3.64900
C           6.49800         0.43000         1.55900
O           4.18500         1.20100         2.03400
C           7.12900        -0.43100         0.70500
H           7.01600         1.01600         2.30400
C           4.66900         2.09100         3.03300
H           8.18500        -0.64500         0.64400
H           5.34800         2.83500         2.60400
H           3.79100         2.59300         3.43700
H           5.17700         1.54600         3.83500

D 8 9 32 33 F

