%mem=480GB 
%nprocshared=40 
# mp2/aug-cc-pvdz MaxDisk=400GB 

 NDI_-10_b3lyp.pdb

0  1
C          -2.46100        -3.03800        -0.04500
C          -2.20400        -1.57500         0.01400
C          -3.27400        -0.65400        -0.04800
C          -4.60000        -1.10700        -0.18800
C          -4.89400        -2.56300        -0.26500
C          -0.91500        -1.12400         0.08600
C          -2.97800         0.73400         0.04500
C          -1.63000         1.19400         0.18600
C          -0.55500         0.26000         0.13600
C          -1.45400         2.63000         0.52000
C          -3.86400         3.09200         0.07900
C          -4.07400         1.63300        -0.02000
C          -5.37300         1.16900        -0.17700
C          -5.64500        -0.19900        -0.25700
H          -6.65700        -0.56500        -0.37000
H          -6.17000         1.89900        -0.23100
H          -0.14300        -1.88300         0.07100
N          -2.55600         3.49000         0.35900
N          -3.79500        -3.43600        -0.18000
O          -1.57300        -3.86800         0.01600
O          -6.02700        -2.98800        -0.39000
O          -4.76800         3.90000        -0.04500
O          -0.41800         3.11300         0.94900
C          -2.30600         4.91500         0.61700
H          -2.04500         5.06600         1.66500
H          -1.47500         5.25900         0.00300
H          -3.21300         5.45800         0.37200
C          -4.04000        -4.88400        -0.24200
H          -3.51100        -5.31100        -1.09500
H          -3.67000        -5.35900         0.66600
H          -5.11000        -5.03700        -0.34300
C           0.87100         0.53000        -0.00400
C           1.57200         1.68600        -0.30300
S           2.01300        -0.80100         0.23000
C           2.96200         1.50800        -0.37100
H           1.09500         2.63500        -0.46100
C           3.39500         0.20700        -0.09700
O           3.88500         2.46100        -0.65800
C           4.74300        -0.28000        -0.06400
C           3.42600         3.79600        -0.86600
C           5.17000        -1.57800         0.20500
S           6.14200         0.74300        -0.37300
H           4.31900         4.39400        -1.03400
H           2.77600         3.85400        -1.74500
H           2.89200         4.16900         0.01400
C           6.58100        -1.74600         0.16400
O           4.25100        -2.53700         0.47400
C           7.22500        -0.57700        -0.13600
H           7.09300        -2.67900         0.34600
C           4.70900        -3.86100         0.73600
H           8.28800        -0.41800        -0.23200
H           5.35000        -3.88600         1.62200
H           3.81500        -4.45500         0.91600
H           5.24900        -4.26700        -0.12600

D 8 9 32 33 F

