%mem=480GB 
%nprocshared=40 
# mp2/aug-cc-pvdz MaxDisk=400GB 

 NDI_180_b3lyp.pdb

0  1
C          -3.57000        -2.65400         0.01300
C          -2.81300        -1.37700         0.10200
C          -3.47500        -0.13900        -0.06000
C          -4.85600        -0.09300        -0.32300
C          -5.64400        -1.34900        -0.42600
C          -1.46300        -1.41700         0.30600
C          -2.70600         1.04900         0.05800
C          -1.30000         0.99600         0.32200
C          -0.62500        -0.25700         0.39300
C          -0.63700         2.28300         0.61500
C          -2.68100         3.56900         0.01400
C          -3.39300         2.27900        -0.10500
C          -4.75500         2.30800        -0.37800
C          -5.49400         1.12800        -0.48500
H          -6.55700         1.14700        -0.69000
H          -5.22800         3.27400        -0.50100
H          -1.03500        -2.40300         0.37200
N          -1.33900         3.47700         0.38400
N          -4.94100        -2.55500        -0.24300
O          -3.04500        -3.74500         0.15100
O          -6.83800        -1.34800        -0.65600
O          -3.22400         4.64500        -0.17200
O           0.49400         2.36700         1.07000
C          -0.59700         4.72200         0.63000
H          -0.33200         4.79600         1.68600
H           0.32200         4.72100         0.04500
H          -1.23700         5.54900         0.34100
C          -5.68200        -3.82100        -0.33000
H          -5.27800        -4.43000        -1.13900
H          -5.57500        -4.37400         0.60300
H          -6.72500        -3.58500        -0.51700
C           0.80900        -0.55600         0.44400
C           1.32600        -1.85500         0.51300
S           2.13000         0.56500         0.14600
C           2.70600        -1.94300         0.31100
H           0.73000        -2.73000         0.71300
C           3.31600        -0.71300         0.05300
O           3.46500        -3.07100         0.34900
C           4.70800        -0.47000        -0.19100
C           2.81300        -4.31100         0.60700
C           5.33100         0.75300        -0.43300
S           5.91500        -1.75300        -0.23100
H           3.59500        -5.06800         0.59400
H           2.32900        -4.30500         1.58900
H           2.07400        -4.53700        -0.16800
C           6.73300         0.66100        -0.64300
O           4.58700         1.88500        -0.45300
C           7.17800        -0.63000        -0.56300
H           7.38000         1.50300        -0.84400
C           5.25200         3.12900        -0.65200
H           8.19000        -0.98400        -0.68200
H           5.74200         3.16200        -1.63100
H           4.47600         3.89000        -0.60900
H           5.98700         3.31200         0.13800

D 8 9 32 33 F

