%mem=480GB 
%nprocshared=40 
# mp2/aug-cc-pvdz MaxDisk=400GB 

 NDI_165_b3lyp.pdb

0  1
C          -2.56300        -2.99400        -0.40900
C          -2.25700        -1.55100        -0.22400
C          -3.30100        -0.60700        -0.08300
C          -4.65000        -1.02400        -0.11500
C          -4.99200        -2.45900        -0.30400
C          -0.94900        -1.13700        -0.21500
C          -2.96200         0.76400         0.10200
C          -1.59500         1.18800         0.12300
C          -0.56100         0.23200        -0.07200
C          -1.32800         2.61600         0.44600
C          -3.77700         3.11500         0.50800
C          -4.03500         1.67900         0.26800
C          -5.35600         1.25200         0.23000
C          -5.67200        -0.09800         0.03600
H          -6.69900        -0.44200         0.00800
H          -6.13300         1.99700         0.36100
H          -0.19000        -1.89500        -0.36900
N          -2.43200         3.47600         0.60800
N          -3.91600        -3.35300        -0.43800
O          -1.69500        -3.84700        -0.53200
O          -6.14900        -2.85000        -0.34000
O          -4.67600         3.93800         0.62900
O          -0.21200         3.09700         0.59600
C          -2.11100         4.87500         0.91200
H          -1.54000         4.93100         1.84000
H          -1.50000         5.29900         0.11100
H          -3.05000         5.41400         1.00300
C          -4.20600        -4.77900        -0.62500
H          -3.75900        -5.12600        -1.55900
H          -3.77500        -5.35500         0.19600
H          -5.28600        -4.89700        -0.64900
C           0.87600         0.48200        -0.17800
C           1.95200        -0.38000        -0.09400
S           1.44300         2.14900        -0.28800
C           3.20000         0.27300        -0.12200
H           1.83900        -1.45000        -0.02300
C           3.12200         1.66500        -0.23600
O           4.42400        -0.31600        -0.05200
C           4.20700         2.59900        -0.33300
C           4.47000        -1.74000        -0.08100
C           4.12800         3.98800        -0.42300
S           5.89900         2.10900        -0.35400
H           5.52700        -2.00500        -0.09700
H           4.00100        -2.17100         0.81200
H           3.97600        -2.13500        -0.97700
C           5.39100         4.64000        -0.50700
O           2.90700         4.58400        -0.42700
C           6.42900         3.74800        -0.48000
H           5.52400         5.71000        -0.58200
C           2.85900         6.00600        -0.48500
H           7.48700         3.96800        -0.52600
H           3.31000         6.38200        -1.41100
H           1.80300         6.27200        -0.46300
H           3.36700         6.45600         0.37700

D 8 9 32 33 F

