%mem=480GB 
%nprocshared=40 
# mp2/aug-cc-pvdz MaxDisk=400GB 

 NDI_-150_b3lyp.pdb

0  1
C          -3.41400        -2.68400         0.48900
C          -2.73100        -1.38600         0.24700
C          -3.48200        -0.19800         0.10100
C          -4.88900        -0.22700         0.15400
C          -5.60600        -1.50800         0.38800
C          -1.36600        -1.35200         0.16400
C          -2.78200         1.02200        -0.09400
C          -1.35300         1.05400        -0.12200
C          -0.60900        -0.15300        -0.05000
C          -0.71600         2.38100        -0.22100
C          -2.91100         3.49900        -0.54800
C          -3.55800         2.19500        -0.28200
C          -4.94500         2.14500        -0.24400
C          -5.61700         0.94200        -0.01600
H          -6.69700         0.90000         0.02300
H          -5.49100         3.06700        -0.40100
H          -0.84400        -2.28500         0.31100
N          -1.51600         3.49100        -0.53900
N          -4.81200        -2.65800         0.54700
O          -2.81100        -3.73400         0.62500
O          -6.82000        -1.57000         0.44300
O          -3.54400         4.52000        -0.75500
O           0.47600         2.56400        -0.03400
C          -0.81300         4.76800        -0.72300
H          -0.41700         5.12500         0.23000
H           0.02000         4.62400        -1.41000
H          -1.52600         5.48400        -1.11900
C          -5.47800        -3.94600         0.78600
H          -5.23100        -4.64300        -0.01500
H          -5.13400        -4.36900         1.72900
H          -6.54900        -3.76700         0.81600
C           0.82800        -0.39800        -0.21500
C           1.30900        -1.60900        -0.71200
S           2.17700         0.60700         0.28900
C           2.70400        -1.73000        -0.67400
H           0.66400        -2.37100        -1.12200
C           3.34900        -0.62500        -0.11400
O           3.44300        -2.77900        -1.12400
C           4.76200        -0.45000         0.08100
C           2.75100        -3.92700        -1.60800
C           5.41500         0.64600         0.63700
S           5.95200        -1.66600        -0.37400
H           3.52000        -4.64700        -1.88100
H           2.10700        -4.35500        -0.83300
H           2.15300        -3.68200        -2.49200
C           6.82900         0.51400         0.69500
O           4.68600         1.70600         1.06400
C           7.25200        -0.68200         0.18600
H           7.49800         1.26300         1.09300
C           5.37700         2.83600         1.58800
H           8.26700        -1.04200         0.10800
H           6.04900         3.26800         0.83900
H           4.60700         3.56100         1.84600
H           5.94400         2.57000         2.48600

D 8 9 32 33 F

