%mem=480GB 
%nprocshared=40 
# mp2/aug-cc-pvdz MaxDisk=400GB 

 NDI_80_b3lyp.pdb

0  1
C          -3.02100        -2.87200         0.54100
C          -2.49700        -1.49500         0.34100
C          -3.37900        -0.43400         0.03800
C          -4.76800        -0.66400        -0.08200
C          -5.32600        -2.03000         0.11700
C          -1.14700        -1.25400         0.46000
C          -2.85100         0.87100        -0.15400
C          -1.45200         1.10400        -0.02900
C          -0.59800         0.04500         0.30800
C          -0.93200         2.47900        -0.29700
C          -3.25500         3.29800        -0.70700
C          -3.75000         1.91800        -0.47600
C          -5.10700         1.67100        -0.58700
C          -5.62100         0.38100        -0.38900
H          -6.68200         0.18300        -0.47600
H          -5.76200         2.49700        -0.83300
H          -0.48900        -2.07900         0.70100
N          -1.87200         3.47600        -0.61600
N          -4.40500        -3.04800         0.41300
O          -2.30300        -3.81700         0.80500
O          -6.51700        -2.26000         0.02700
O          -4.00400         4.22100        -0.96900
O           0.24600         2.77200        -0.26500
C          -1.32100         4.81600        -0.87200
H          -0.79400         5.17400         0.01200
H          -0.61300         4.77000        -1.70000
H          -2.14900         5.47500        -1.11300
C          -4.90800        -4.41500         0.61500
H          -4.43900        -5.08800        -0.10300
H          -4.65900        -4.75400         1.62000
H          -5.98500        -4.39800         0.47500
C           0.86200         0.16800         0.50400
C           1.52900         0.62500         1.60900
S           1.95500        -0.52400        -0.66000
C           2.93500         0.45500         1.50800
H           1.02800         1.07600         2.45300
C           3.35700        -0.14900         0.33300
O           3.85700         0.81700         2.44400
C           4.70600        -0.42700        -0.08900
C           3.41300         1.58600         3.55600
C           5.12000        -1.05900        -1.25300
S           6.11600         0.03000         0.85800
H           4.30700         1.82000         4.13300
H           2.93500         2.51500         3.22800
H           2.72000         1.01400         4.18200
C           6.53200        -1.17500        -1.38500
O           4.18700        -1.50100        -2.14200
C           7.19300        -0.62900        -0.32000
H           7.03400        -1.63800        -2.22300
C           4.64200        -2.14600        -3.32600
H           8.25800        -0.58300        -0.15600
H           5.20800        -3.05300        -3.09000
H           3.74700        -2.41300        -3.88400
H           5.26000        -1.47300        -3.92900

D 8 9 32 33 F

