%mem=480GB 
%nprocshared=40 
# mp2/aug-cc-pvdz MaxDisk=400GB 

 NDI_-120_b3lyp.pdb

0  1
C          -3.51800        -2.71000         0.43600
C          -2.76600        -1.46300         0.14000
C          -3.43400        -0.21700         0.12100
C          -4.81600        -0.13500         0.39700
C          -5.59400        -1.36300         0.71200
C          -1.41000        -1.51900        -0.08800
C          -2.69500         0.95700        -0.19000
C          -1.30300         0.87500        -0.47000
C          -0.64200        -0.35700        -0.36000
C          -0.61600         2.09800        -0.97900
C          -2.65800         3.45400        -0.52700
C          -3.38000         2.19700        -0.20800
C          -4.73500         2.25600         0.07500
C          -5.45700         1.09200         0.37600
H          -6.51600         1.13400         0.59300
H          -5.22200         3.22300         0.05900
H          -0.91100        -2.47800        -0.02400
N          -1.31400         3.31600        -0.88100
N          -4.88500        -2.57600         0.70600
O          -2.99200        -3.80800         0.45000
O          -6.78500        -1.32800         0.96000
O          -3.20500         4.54300        -0.50200
O           0.48800         2.08700        -1.48500
C          -0.58100         4.51700        -1.30800
H           0.40300         4.52000        -0.84400
H          -0.45200         4.51700        -2.39200
H          -1.15800         5.38500        -1.00400
C          -5.61400        -3.81800         1.00500
H          -5.54200        -4.49900         0.15700
H          -5.17300        -4.30200         1.87600
H          -6.65000        -3.55800         1.19700
C           0.81100        -0.55300        -0.48300
C           1.46600        -1.33500        -1.40200
S           1.92200         0.17500         0.64100
C           2.87200        -1.32700        -1.22300
H           0.95400        -1.86300        -2.19300
C           3.30700        -0.56300        -0.14600
O           3.78600        -1.98600        -1.98500
C           4.65500        -0.38900         0.32700
C           3.30900        -2.77800        -3.06800
C           5.08700         0.37300         1.40400
S           6.04300        -1.15600        -0.43500
H           4.19200        -3.21400        -3.53200
H           2.65200        -3.57800        -2.71300
H           2.77900        -2.16200        -3.80300
C           6.49400         0.34600         1.61300
O           4.17300         1.05400         2.15000
C           7.13300        -0.43900         0.69400
H           7.00700         0.87800         2.40100
C           4.65100         1.86800         3.21500
H           8.19100        -0.63600         0.61600
H           5.32200         2.65000         2.84400
H           3.76900         2.32800         3.65800
H           5.16600         1.26700         3.97100

D 8 9 32 33 F

