%mem=480GB 
%nprocshared=40 
# mp2/aug-cc-pvdz MaxDisk=400GB 

 NDI_-40_b3lyp.pdb

0  1
C           2.63100        -2.98400         0.41700
C           2.29000        -1.55000         0.22500
C           3.31200        -0.58300         0.08400
C           4.66900        -0.96400         0.12800
C           5.04600        -2.38900         0.33300
C           0.97500        -1.16600         0.21300
C           2.94400         0.77700        -0.11800
C           1.57000         1.16500        -0.15200
C           0.56300         0.19200         0.06500
C           1.26200         2.57300        -0.52300
C           3.69300         3.14500        -0.53900
C           3.99100         1.71800        -0.28600
C           5.32000         1.32400        -0.23200
C           5.66600        -0.01400        -0.02300
H           6.70200        -0.32700         0.01600
H           6.08200         2.08200        -0.36100
H           0.22800        -1.93300         0.37000
N           2.34100         3.46600        -0.67100
N           3.99100        -3.30900         0.46000
O           1.78600        -3.85300         0.53500
O           6.20600        -2.74900         0.38600
O           4.56600         3.98900        -0.64700
O           0.13800         2.99900        -0.72400
C           1.98500         4.85000        -1.01300
H           1.44200         4.86800        -1.95800
H           1.34200         5.27000        -0.24000
H           2.90600         5.41900        -1.09000
C           4.31700        -4.72900         0.65500
H           3.88900        -5.07800         1.59600
H           3.89100        -5.31900        -0.15700
H           5.39700        -4.82500         0.66900
C          -0.87100         0.43200         0.19600
C          -1.54900         1.44200         0.84500
S          -2.00000        -0.77200        -0.40700
C          -2.94400         1.26100         0.85500
H          -1.05200         2.28500         1.29400
C          -3.38200         0.10700         0.20200
O          -3.86200         2.08700         1.42200
C          -4.73500        -0.32900         0.00000
C          -3.40400         3.32500         1.95900
C          -5.16700        -1.49300        -0.62800
S          -6.13200         0.59400         0.54000
H          -4.29500         3.85400         2.29300
H          -2.73900         3.16100         2.81300
H          -2.88800         3.91600         1.19600
C          -6.58000        -1.63900        -0.67500
O          -4.24800        -2.35900        -1.12700
C          -7.22200        -0.58700        -0.08300
H          -7.09600        -2.47700        -1.12200
C          -4.71400        -3.55600        -1.74500
H          -8.28600        -0.44200         0.02600
H          -5.33100        -3.33200        -2.62100
H          -3.82300        -4.09600        -2.05800
H          -5.28200        -4.16800        -1.03700

D 8 9 32 33 F

