%mem=480GB 
%nprocshared=40 
# mp2/aug-cc-pvdz MaxDisk=400GB 

 NDI_45_b3lyp.pdb

0  1
C          -2.64400        -2.97100         0.47000
C          -2.29700        -1.54000         0.26100
C          -3.31400        -0.57400         0.08800
C          -4.67200        -0.95200         0.11200
C          -5.05600        -2.37300         0.33300
C          -0.98000        -1.16000         0.26000
C          -2.94100         0.78200        -0.12600
C          -1.56600         1.16800        -0.13800
C          -0.56500         0.19500         0.10100
C          -1.24600         2.57700        -0.49500
C          -3.67600         3.14400        -0.60500
C          -3.98200         1.72200        -0.33200
C          -5.31200         1.33100        -0.29900
C          -5.66500        -0.00300        -0.07400
H          -6.70100        -0.31400        -0.05000
H          -6.07100         2.08700        -0.45800
H          -0.23500        -1.92500         0.43400
N          -2.32100         3.46300        -0.70300
N          -4.00600        -3.29300         0.49300
O          -1.80400        -3.83900         0.61700
O          -6.21800        -2.73000         0.37100
O          -4.54600         3.98600        -0.75300
O          -0.11500         3.00900        -0.63500
C          -1.95500         4.84500        -1.04700
H          -1.36900         5.28600        -0.24000
H          -1.34900         4.85000        -1.95200
H          -2.87300         5.40300        -1.19600
C          -4.33800        -4.70900         0.70600
H          -3.89300        -5.31300        -0.08600
H          -3.93400        -5.04200         1.66200
H          -5.41900        -4.80400         0.69500
C           0.87200         0.43200         0.22300
C           1.55400         1.40400         0.92300
S           1.99200        -0.74900        -0.43400
C           2.94900         1.21700         0.92200
H           1.06000         2.22700         1.41200
C           3.38000         0.09400         0.21400
O           3.87200         2.01000         1.52700
C           4.73100        -0.33700        -0.01500
C           3.42000         3.22600         2.11900
C           5.15600        -1.47300        -0.69600
S           6.13400         0.55900         0.55800
H           4.31400         3.73400         2.47500
H           2.90800         3.85300         1.38200
H           2.75400         3.02800         2.96400
C           6.56900        -1.62000        -0.75800
O           4.23300        -2.31300        -1.22900
C           7.21700        -0.59700        -0.12300
H           7.08000        -2.43800        -1.24400
C           4.69300        -3.48500        -1.89700
H           8.28200        -0.45900        -0.01400
H           5.26200        -4.12700        -1.21800
H           3.79800        -4.00900        -2.22800
H           5.30700        -3.22600        -2.76600

D 8 9 32 33 F

