%mem=480GB 
%nprocshared=40 
# mp2/aug-cc-pvdz MaxDisk=400GB 

 NDI_50_b3lyp.pdb

0  1
C          -2.65600        -2.95600         0.52400
C          -2.30200        -1.52900         0.29900
C          -3.31500        -0.56500         0.09200
C          -4.67400        -0.94200         0.09400
C          -5.06300        -2.35900         0.32900
C          -0.98500        -1.15100         0.31100
C          -2.93700         0.78800        -0.13300
C          -1.56200         1.17300        -0.11900
C          -0.56700         0.20200         0.14100
C          -1.23300         2.58500        -0.45600
C          -3.65900         3.14200        -0.67200
C          -3.97200         1.72500        -0.37900
C          -5.30300         1.33400        -0.37200
C          -5.66100         0.00400        -0.13100
H          -6.69800        -0.30600        -0.12500
H          -6.05700         2.08700        -0.56300
H          -0.24100        -1.91300         0.50200
N          -2.30100         3.46200        -0.73000
N          -4.01800        -3.27600         0.52600
O          -1.81900        -3.82200         0.70100
O          -6.22700        -2.71400         0.34900
O          -4.52400         3.97800        -0.86500
O          -0.10000         3.02600        -0.52400
C          -1.92600         4.84100        -1.07100
H          -1.41300         5.30800        -0.22900
H          -1.25000         4.83600        -1.92500
H          -2.83700         5.38400        -1.30300
C          -4.35500        -4.68900         0.75400
H          -3.89600        -5.30600        -0.01800
H          -3.96900        -5.00700         1.72300
H          -5.43600        -4.78300         0.72600
C           0.87400         0.43600         0.25500
C           1.56200         1.36600         1.00200
S           1.98200        -0.72100        -0.45900
C           2.95700         1.16900         0.98700
H           1.07300         2.16700         1.53100
C           3.37800         0.08000         0.22500
O           3.88600         1.92700         1.62800
C           4.72600        -0.34600        -0.03300
C           3.44400         3.11700         2.27700
C           5.14200        -1.45100        -0.76800
S           6.13600         0.51700         0.57000
H           4.34200         3.60100         2.65500
H           2.93500         3.78200         1.57200
H           2.77700         2.88500         3.11300
C           6.55300        -1.60100        -0.84600
O           4.21000        -2.26300        -1.33200
C           7.21000        -0.61000        -0.17000
H           7.05700        -2.39900        -1.37100
C           4.66100        -3.40500        -2.05500
H           8.27700        -0.48300        -0.06100
H           5.23200        -4.08000        -1.40900
H           3.76300        -3.91100        -2.40300
H           5.27100        -3.11000        -2.91500

D 8 9 32 33 F

