%mem=480GB 
%nprocshared=40 
# mp2/aug-cc-pvdz MaxDisk=400GB 

 NDI_-60_b3lyp.pdb

0  1
C           2.69100        -2.92300         0.62600
C           2.31900        -1.50400         0.37500
C           3.31700        -0.54200         0.10000
C           4.67700        -0.91400         0.04800
C           5.08500        -2.32100         0.30600
C           0.99900        -1.13300         0.41800
C           2.92500         0.80400        -0.14100
C           1.55200         1.18300        -0.07100
C           0.57200         0.21400         0.23200
C           1.20400         2.60200        -0.36200
C           3.60200         3.14200        -0.79400
C           3.94000         1.73700        -0.47000
C           5.27000         1.35100        -0.51900
C           5.64600         0.02900        -0.25300
H           6.68400        -0.27600        -0.28900
H           6.01100         2.09800        -0.77500
H           0.26300        -1.89300         0.64400
N           2.24300         3.46100        -0.76600
N           4.05400        -3.23600         0.57700
O           1.86800        -3.78700         0.86500
O           6.25000        -2.67100         0.28400
O           4.44900         3.97100        -1.07800
O           0.07700         3.05600        -0.28300
C           1.84700         4.83800        -1.09500
H           1.03900         4.81800        -1.82400
H           1.49000         5.35200        -0.20000
H           2.71800         5.34800        -1.49400
C           4.40900        -4.64000         0.83300
H           4.06800        -4.93000         1.82700
H           3.91900        -5.28200         0.10000
H           5.48800        -4.73100         0.75900
C          -0.87600         0.43800         0.33200
C          -1.58200         1.27100         1.16800
S          -1.95600        -0.66100        -0.50200
C          -2.97600         1.05600         1.12000
H          -1.10700         2.02000         1.78100
C          -3.37300         0.04600         0.24700
O          -3.92100         1.73200         1.82600
C          -4.71200        -0.36800        -0.07300
C          -3.50200         2.86100         2.58900
C          -5.10300        -1.40100        -0.91700
S          -6.14100         0.41700         0.58800
H          -4.41100         3.29200         3.00700
H          -2.83600         2.56100         3.40400
H          -3.00200         3.60000         1.95500
C          -6.51200        -1.55800        -1.03200
O          -4.15400        -2.14600        -1.54300
C          -7.19100        -0.64500        -0.27400
H          -6.99800        -2.30700        -1.63900
C          -4.58200        -3.21700        -2.37800
H          -8.26000        -0.54000        -0.16900
H          -5.18300        -2.84700        -3.21500
H          -3.67300        -3.67800        -2.76100
H          -5.15400        -3.95700        -1.80900

D 8 9 32 33 F

