%mem=480GB 
%nprocshared=40 
# mp2/aug-cc-pvdz MaxDisk=400GB 

 NDI_10_b3lyp.pdb

0  1
C          -2.37300        -3.00500         0.39800
C          -2.15400        -1.53900         0.28000
C          -3.23700        -0.66900         0.02300
C          -4.53400        -1.18100        -0.17000
C          -4.78700        -2.64400        -0.08000
C          -0.89000        -1.03900         0.40300
C          -2.98000         0.72800        -0.03000
C          -1.66100         1.25000         0.18500
C          -0.55700         0.35300         0.30900
C          -1.56300         2.72400         0.31600
C          -3.91300         3.03300        -0.43900
C          -4.08300         1.57100        -0.32400
C          -5.35300         1.04700        -0.53300
C          -5.59000        -0.32600        -0.44800
H          -6.57900        -0.73800        -0.59800
H          -6.15300         1.73700        -0.76700
H          -0.11300        -1.76700         0.59400
N          -2.64300         3.51100        -0.12100
N          -3.68100        -3.46200         0.20800
O          -1.47400        -3.78900         0.64200
O          -5.89600        -3.12000        -0.24000
O          -4.81800         3.78300        -0.76500
O          -0.60700         3.31000         0.80300
C          -2.44200         4.96600        -0.08300
H          -2.36200         5.31100         0.94900
H          -1.51900         5.21800        -0.60300
H          -3.29600         5.42800        -0.56700
C          -3.88700        -4.91300         0.31900
H          -3.27000        -5.42900        -0.41700
H          -3.59500        -5.25200         1.31300
H          -4.93900        -5.11500         0.14100
C           0.88100         0.62600         0.30200
C           1.64200         1.78500         0.35400
S           1.96400        -0.75900         0.04700
C           3.02200         1.57200         0.20900
H           1.20100         2.74700         0.53100
C           3.39200         0.23900         0.02900
O           3.98900         2.52600         0.24100
C           4.71300        -0.29200        -0.13900
C           3.58800         3.88000         0.44400
C           5.08100        -1.62700        -0.29200
S           6.15500         0.71900        -0.17800
H           4.50700         4.46400         0.44200
H           2.93300         4.22100        -0.36300
H           3.07900         3.99900         1.40500
C           6.48000        -1.83100        -0.43500
O           4.12100        -2.58300        -0.29600
C           7.17500        -0.65400        -0.39200
H           6.94900        -2.79600        -0.56200
C           4.52200        -3.94600        -0.42000
H           8.24200        -0.51700        -0.47400
H           5.17300        -4.24000         0.40900
H           3.60400        -4.52900        -0.38600
H           5.03000        -4.12000        -1.37400

D 8 9 32 33 F

