%mem=480GB 
%nprocshared=40 
# mp2/aug-cc-pvdz MaxDisk=400GB 

 NDI_40_b3lyp.pdb

0  1
C          -2.63000        -2.98400         0.41700
C          -2.29000        -1.55000         0.22400
C          -3.31200        -0.58300         0.08400
C          -4.66900        -0.96400         0.12800
C          -5.04500        -2.38900         0.33300
C          -0.97500        -1.16500         0.21300
C          -2.94400         0.77700        -0.11800
C          -1.57100         1.16500        -0.15200
C          -0.56300         0.19300         0.06500
C          -1.26300         2.57300        -0.52200
C          -3.69400         3.14500        -0.53900
C          -3.99100         1.71800        -0.28600
C          -5.32000         1.32400        -0.23100
C          -5.66600        -0.01500        -0.02300
H          -6.70200        -0.32700         0.01700
H          -6.08300         2.08200        -0.36000
H          -0.22800        -1.93200         0.37000
N          -2.34200         3.46600        -0.67100
N          -3.99100        -3.30900         0.45900
O          -1.78600        -3.85300         0.53500
O          -6.20600        -2.75000         0.38600
O          -4.56700         3.98900        -0.64600
O          -0.13900         3.00000        -0.72300
C          -1.98600         4.85000        -1.01400
H          -1.34400         5.27100        -0.24000
H          -1.44100         4.86800        -1.95800
H          -2.90800         5.41800        -1.09300
C          -4.31600        -4.73000         0.65400
H          -3.88400        -5.32000        -0.15400
H          -3.89500        -5.07700         1.59800
H          -5.39700        -4.82700         0.66100
C           0.87100         0.43200         0.19600
C           1.55000         1.44200         0.84500
S           2.00000        -0.77200        -0.40700
C           2.94400         1.26200         0.85400
H           1.05300         2.28600         1.29300
C           3.38200         0.10700         0.20200
O           3.86300         2.08700         1.42100
C           4.73500        -0.32900         0.00000
C           3.40400         3.32600         1.95800
C           5.16700        -1.49300        -0.62800
S           6.13200         0.59500         0.54000
H           4.29600         3.85400         2.29100
H           2.88800         3.91700         1.19500
H           2.73900         3.16200         2.81300
C           6.58000        -1.63900        -0.67500
O           4.24800        -2.35900        -1.12800
C           7.22200        -0.58700        -0.08300
H           7.09600        -2.47700        -1.12100
C           4.71400        -3.55700        -1.74300
H           8.28600        -0.44200         0.02600
H           5.28100        -4.16800        -1.03400
H           3.82300        -4.09700        -2.05500
H           5.33200        -3.33400        -2.61900

D 8 9 32 33 F

