%mem=480GB 
%nprocshared=40 
# mp2/aug-cc-pvdz MaxDisk=400GB 

 NDI_65_b3lyp.pdb

0  1
C          -2.72900        -2.90700         0.65500
C          -2.33900        -1.49500         0.39800
C          -3.32200        -0.52600         0.09800
C          -4.68600        -0.88400         0.02600
C          -5.11200        -2.28600         0.28900
C          -1.01500        -1.13700         0.45700
C          -2.91400         0.81400        -0.14700
C          -1.53900         1.18000        -0.05800
C          -0.57600         0.20400         0.26600
C          -1.17100         2.59500        -0.34200
C          -3.55300         3.15500        -0.82800
C          -3.91300         1.75600        -0.50000
C          -5.24600         1.38200        -0.56900
C          -5.63900         0.06600        -0.30000
H          -6.67900        -0.23000        -0.35100
H          -5.97500         2.13400        -0.84400
H          -0.28700        -1.90100         0.69600
N          -2.19200         3.46200        -0.77400
N          -4.09500        -3.20800         0.58600
O          -1.92000        -3.77700         0.91600
O          -6.28000        -2.62400         0.24900
O          -4.38600         3.99000        -1.13500
O          -0.04300         3.03800        -0.23300
C          -1.77700         4.83400        -1.09800
H          -1.44400         5.35100        -0.19600
H          -0.94700         4.80300        -1.80200
H          -2.63200         5.34800        -1.52600
C          -4.46800        -4.60600         0.84800
H          -3.97400        -5.25900         0.12900
H          -4.14600        -4.89100         1.85000
H          -5.54600        -4.68600         0.75800
C           0.87600         0.42000         0.36900
C           1.58300         1.19200         1.25900
S           1.94700        -0.63200        -0.53000
C           2.97700         0.97400         1.19700
H           1.11000         1.90200         1.91800
C           3.36900         0.01900         0.26300
O           3.92500         1.60100         1.94500
C           4.70600        -0.38000        -0.08500
C           3.51400         2.68800         2.76800
C           5.09200        -1.36100        -0.99100
S           6.14000         0.35800         0.62000
H           4.42400         3.08700         3.21300
H           3.02100         3.46500         2.17500
H           2.84200         2.34800         3.56300
C           6.50000        -1.51700        -1.11800
O           4.13800        -2.06300        -1.65900
C           7.18500        -0.65400        -0.30700
H           6.98200        -2.22900        -1.77100
C           4.56100        -3.08400        -2.55600
H           8.25400        -0.56100        -0.19800
H           5.13100        -3.85900        -2.03200
H           3.65100        -3.51900        -2.96500
H           5.16400        -2.66900        -3.37100

D 8 9 32 33 F

