%mem=480GB 
%nprocshared=40 
# mp2/aug-cc-pvdz MaxDisk=400GB 

 NDI_-160_b3lyp.pdb

0  1
C          -3.42400        -2.69500         0.36300
C          -2.73900        -1.39200         0.15400
C          -3.48500        -0.19300         0.08300
C          -4.88900        -0.21600         0.18500
C          -5.60700        -1.50200         0.38600
C          -1.37800        -1.36400         0.03900
C          -2.77900         1.02700        -0.08600
C          -1.34900         1.04900        -0.16500
C          -0.60900        -0.16700        -0.15100
C          -0.71000         2.37200        -0.28900
C          -2.91100         3.52400        -0.41400
C          -3.55300         2.21200        -0.18700
C          -4.93800         2.17000        -0.09700
C          -5.61300         0.96400         0.09700
H          -6.69200         0.92800         0.17500
H          -5.48100         3.10300        -0.18600
H          -0.87200        -2.31000         0.14700
N          -1.51800         3.50400        -0.48400
N          -4.81700        -2.66300         0.46700
O          -2.82300        -3.75300         0.43700
O          -6.81900        -1.55900         0.47900
O          -3.54500         4.55900        -0.53200
O           0.49900         2.54000        -0.23100
C          -0.81200         4.77900        -0.66800
H          -0.28400         5.05400         0.24600
H          -0.08200         4.67700        -1.47000
H          -1.55300         5.53400        -0.91300
C          -5.48700        -3.95600         0.67000
H          -5.26200        -4.62200        -0.16400
H          -5.12300        -4.41800         1.58800
H          -6.55400        -3.77300         0.73300
C           0.82900        -0.42000        -0.28900
C           1.32700        -1.67400        -0.65400
S           2.17300         0.62600         0.15300
C           2.71700        -1.79200        -0.57100
H           0.70000        -2.47500        -1.01300
C           3.35100        -0.63800        -0.10300
O           3.46400        -2.88000        -0.89900
C           4.75900        -0.44600         0.10400
C           2.78300        -4.06100        -1.31100
C           5.40300         0.69900         0.56600
S           5.95700        -1.70000        -0.20600
H           3.55700        -4.80300        -1.49600
H           2.11100        -4.42300        -0.52600
H           2.21600        -3.88800        -2.23200
C           6.81500         0.57300         0.66700
O           4.66900         1.79600         0.87400
C           7.24600        -0.66700         0.28400
H           7.47800         1.35600         1.00600
C           5.35100         2.96900         1.30700
H           8.26100        -1.03300         0.26300
H           6.04100         3.32900         0.53700
H           4.57700         3.71500         1.47900
H           5.89600         2.78700         2.23800

D 8 9 32 33 F

