%mem=480GB 
%nprocshared=40 
# mp2/aug-cc-pvdz MaxDisk=400GB 

 NDI_5_b3lyp.pdb

0  1
C          -2.37200        -3.02100         0.30500
C          -2.15500        -1.55200         0.22600
C          -3.24000        -0.67600         0.00100
C          -4.53900        -1.18400        -0.19500
C          -4.79000        -2.64900        -0.14500
C          -0.88900        -1.05600         0.35000
C          -2.98400         0.72200        -0.01300
C          -1.66300         1.23800         0.19800
C          -0.55700         0.33800         0.28500
C          -1.56400         2.70500         0.39000
C          -3.92500         3.03900        -0.32300
C          -4.09100         1.57300        -0.26500
C          -5.36200         1.05500        -0.47800
C          -5.59700        -0.32100        -0.43600
H          -6.58800        -0.72900        -0.58900
H          -6.16700         1.75100        -0.67800
H          -0.11000        -1.79000         0.50400
N          -2.65300         3.50600         0.00800
N          -3.68100        -3.47300         0.11100
O          -1.47100        -3.81200         0.52100
O          -5.89900        -3.12000        -0.31200
O          -4.83300         3.79900        -0.61300
O          -0.59900         3.27000         0.88400
C          -2.45700         4.95900         0.11100
H          -2.35000         5.25300         1.15600
H          -1.54900         5.24200        -0.42100
H          -3.32600         5.44000        -0.32700
C          -3.88600        -4.92700         0.18200
H          -3.27200        -5.42200        -0.57100
H          -3.58800        -5.29400         1.16400
H          -4.93800        -5.12500         0.00500
C           0.87800         0.61600         0.24600
C           1.62300         1.78700         0.20500
S           1.98100        -0.76800         0.10300
C           3.00500         1.58400         0.06800
H           1.17300         2.75600         0.30900
C           3.39300         0.24400        -0.00100
O           3.95800         2.54900         0.01500
C           4.72200        -0.27900        -0.12600
C           3.53900         3.91000         0.11100
C           5.10800        -1.61700        -0.17300
S           6.15000         0.74400        -0.24400
H           4.44900         4.50500         0.06100
H           2.88000         4.17600        -0.72100
H           3.02700         4.09800         1.05900
C           6.50900        -1.81300        -0.29900
O           4.16100        -2.58300        -0.10100
C           7.18800        -0.62700        -0.34900
H           6.99200        -2.77800        -0.35000
C           4.57900        -3.94700        -0.12600
H           8.25400        -0.48300        -0.44100
H           5.23400        -4.17100         0.72100
H           3.66800        -4.53800        -0.04800
H           5.08900        -4.18300        -1.06500

D 8 9 32 33 F

