%mem=480GB 
%nprocshared=40 
# mp2/aug-cc-pvdz MaxDisk=400GB 

 NDI_-25_b3lyp.pdb

0  1
C           2.56500        -3.01700         0.25000
C           2.25600        -1.56900         0.11400
C           3.29900        -0.61500         0.07000
C           4.64500        -1.02000         0.16500
C           4.98900        -2.46000         0.31500
C           0.95100        -1.16200         0.07400
C           2.95900         0.75800        -0.08700
C           1.59300         1.17000        -0.17600
C           0.55800         0.20800        -0.03400
C           1.33800         2.58500        -0.55500
C           3.76300         3.13200        -0.33100
C           4.02600         1.68900        -0.14400
C           5.34600         1.27200        -0.03400
C           5.66300        -0.08000         0.11900
H           6.69000        -0.41100         0.19900
H           6.12300         2.02500        -0.07600
H           0.19400        -1.92900         0.17200
N           2.42800         3.47700        -0.54700
N           3.91600        -3.36700         0.34200
O           1.70200        -3.87600         0.28300
O           6.14000        -2.84300         0.40800
O           4.64900         3.97000        -0.32400
O           0.25000         3.02100        -0.89200
C           2.11600         4.87600        -0.86800
H           1.72600         4.94800        -1.88400
H           1.35600         5.25100        -0.18300
H           3.03300         5.45000        -0.77100
C           4.21100        -4.80100         0.48000
H           3.73400        -5.18900         1.38000
H           3.81500        -5.34200        -0.38000
H           5.28800        -4.91600         0.53900
C          -0.87000         0.45900         0.11600
C          -1.55000         1.55900         0.60200
S          -2.01300        -0.80800        -0.32100
C          -2.94400         1.38800         0.63700
H          -1.05700         2.45900         0.92300
C          -3.38800         0.15300         0.15700
O          -3.85800         2.29100         1.07800
C          -4.74200        -0.30500         0.03400
C          -3.39000         3.58200         1.46100
C          -5.18100        -1.54200        -0.43000
S          -6.13300         0.68100         0.47000
H          -4.27900         4.15700         1.71600
H          -2.73500         3.51800         2.33500
H          -2.86100         4.06800         0.63500
C          -6.59400        -1.69400        -0.43500
O          -4.26800        -2.46400        -0.82600
C          -7.22900        -0.57300         0.02400
H          -7.11400        -2.58300        -0.76000
C          -4.73900        -3.73100        -1.27900
H          -8.29200        -0.41500         0.12800
H          -5.36800        -3.62100        -2.16800
H          -3.85000        -4.30600        -1.53200
H          -5.29600        -4.24800        -0.49100

D 8 9 32 33 F

