%mem=480GB 
%nprocshared=40 
# mp2/aug-cc-pvdz MaxDisk=400GB 

 NDI_-80_b3lyp.pdb

0  1
C           3.02000        -2.87300         0.54200
C           2.49700        -1.49500         0.34100
C           3.37900        -0.43500         0.03900
C           4.76800        -0.66500        -0.08100
C           5.32500        -2.03100         0.11700
C           1.14700        -1.25300         0.46000
C           2.85100         0.87100        -0.15400
C           1.45200         1.10400        -0.02900
C           0.59800         0.04600         0.30800
C           0.93200         2.47900        -0.29800
C           3.25600         3.29800        -0.70800
C           3.75000         1.91700        -0.47600
C           5.10800         1.66900        -0.58800
C           5.62100         0.37900        -0.39000
H           6.68100         0.18100        -0.47700
H           5.76300         2.49500        -0.83400
H           0.48800        -2.07800         0.70200
N           1.87300         3.47600        -0.61700
N           4.40400        -3.04800         0.41500
O           2.30100        -3.81700         0.80500
O           6.51600        -2.26100         0.02600
O           4.00600         4.22000        -0.97000
O          -0.24500         2.77300        -0.26600
C           1.32300         4.81600        -0.87400
H           0.61600         4.77100        -1.70200
H           0.79400         5.17400         0.01000
H           2.15100         5.47500        -1.11300
C           4.90700        -4.41500         0.61800
H           4.64300        -4.75900         1.61800
H           4.45000        -5.08700        -0.10900
H           5.98500        -4.39600         0.49400
C          -0.86200         0.17000         0.50400
C          -1.52900         0.62700         1.60800
S          -1.95500        -0.52400        -0.66000
C          -2.93500         0.45700         1.50800
H          -1.02800         1.07900         2.45200
C          -3.35700        -0.14800         0.33300
O          -3.85700         0.81900         2.44300
C          -4.70600        -0.42700        -0.08900
C          -3.41500         1.59100         3.55300
C          -5.12000        -1.06000        -1.25300
S          -6.11600         0.03000         0.85700
H          -4.30800         1.82600         4.13000
H          -2.72100         1.02100         4.18100
H          -2.93700         2.51900         3.22300
C          -6.53200        -1.17600        -1.38500
O          -4.18600        -1.50200        -2.14100
C          -7.19200        -0.63000        -0.32000
H          -7.03300        -1.63900        -2.22200
C          -4.64200        -2.15000        -3.32300
H          -8.25800        -0.58300        -0.15700
H          -5.26000        -1.47900        -3.92900
H          -3.74600        -2.41800        -3.88200
H          -5.20600        -3.05700        -3.08500

D 8 9 32 33 F

