%mem=480GB 
%nprocshared=40 
# mp2/aug-cc-pvdz MaxDisk=400GB 

 NDI_-140_b3lyp.pdb

0  1
C          -3.51900        -2.69500         0.40400
C          -2.76600        -1.44800         0.10700
C          -3.42600        -0.19700         0.12200
C          -4.79900        -0.10800         0.43300
C          -5.57700        -1.33600         0.74900
C          -1.41700        -1.51100        -0.14100
C          -2.68300         0.97400        -0.19300
C          -1.29800         0.88600        -0.50600
C          -0.63600        -0.35300        -0.41200
C          -0.63800         2.09800        -1.06500
C          -2.64100         3.47300        -0.50800
C          -3.36100         2.21800        -0.18000
C          -4.70800         2.28400         0.14100
C          -5.43100         1.12400         0.44500
H          -6.48500         1.17100         0.69000
H          -5.18700         3.25500         0.14800
H          -0.92800        -2.47500        -0.08200
N          -1.31600         3.32500        -0.92500
N          -4.87800        -2.55400         0.70800
O          -3.00100        -3.79600         0.38900
O          -6.76100        -1.29700         1.02800
O          -3.17300         4.56700        -0.44600
O           0.42700         2.07600        -1.65200
C          -0.59800         4.51900        -1.39200
H           0.41700         4.50300        -1.00000
H          -0.54700         4.52900        -2.48200
H          -1.13900         5.39200        -1.03900
C          -5.61000        -3.79500         1.00500
H          -5.55800        -4.46600         0.14800
H          -5.15600        -4.29300         1.86100
H          -6.64000        -3.53100         1.22000
C           0.80900        -0.56800        -0.49900
C           1.43800        -1.61000        -1.14900
S           1.95200         0.38000         0.41000
C           2.83500        -1.62200        -0.95100
H           0.90700        -2.31500        -1.77300
C           3.29900        -0.61500        -0.10800
O           3.72300        -2.50100        -1.48800
C           4.65100        -0.38100         0.32200
C           3.21600        -3.54100        -2.31800
C           5.11200         0.61900         1.17100
S           6.00600        -1.37900        -0.19200
H           4.08100        -4.12400        -2.62900
H           2.52200        -4.18400        -1.76600
H           2.71700        -3.13100        -3.20200
C           6.51500         0.58800         1.40100
O           4.22800         1.50700         1.69800
C           7.12000        -0.43700         0.72800
H           7.04900         1.28500         2.02900
C           4.73600         2.55500         2.51800
H           8.16900        -0.69300         0.72200
H           5.44000         3.18300         1.96300
H           3.87300         3.14900         2.81100
H           5.22200         2.15400         3.41300

D 8 9 32 33 F

