%mem=10GB 
%nprocshared=8 
# opt=modredundant b3lyp/6-311+g(d,p) 

 NDI_-75.pdb

-2  1
C          -2.56300        -2.99400        -0.40900
C          -2.25700        -1.55100        -0.22400
C          -3.30100        -0.60700        -0.08300
C          -4.65000        -1.02400        -0.11500
C          -4.99200        -2.45900        -0.30400
C          -0.94900        -1.13700        -0.21500
C          -2.96200         0.76400         0.10200
C          -1.59500         1.18800         0.12300
C          -0.56100         0.23200        -0.07200
C          -1.32800         2.61600         0.44600
C          -3.77700         3.11500         0.50800
C          -4.03500         1.67900         0.26800
C          -5.35600         1.25200         0.23000
C          -5.67200        -0.09800         0.03600
H          -6.69900        -0.44200         0.00800
H          -6.13300         1.99700         0.36100
H          -0.19000        -1.89500        -0.36900
N          -2.43200         3.47600         0.60800
N          -3.91600        -3.35300        -0.43800
O          -1.69500        -3.84700        -0.53200
O          -6.14900        -2.85000        -0.34000
O          -4.67600         3.93800         0.62900
O          -0.21200         3.09700         0.59600
C          -2.11100         4.87500         0.91200
H          -1.54000         4.93100         1.84000
H          -1.50000         5.29900         0.11100
H          -3.05000         5.41400         1.00300
C          -4.20600        -4.77900        -0.62500
H          -3.75900        -5.12600        -1.55900
H          -3.77500        -5.35500         0.19600
H          -5.28600        -4.89700        -0.64900
C           0.87600         0.48200        -0.17800
C           1.62900         1.00600        -1.21100
S           1.93400        -0.07600         1.11900
C           3.01600         0.96900        -0.97200
H           1.18800         1.41100        -2.10800
C           3.37600         0.41800         0.26300
O           3.99400         1.40800        -1.80900
C           4.69500         0.28100         0.81200
C           3.58900         2.09100        -2.99200
C           5.05300        -0.28900         2.03200
S           6.14400         0.84300        -0.01700
H           4.50700         2.42600        -3.47400
H           3.04500         1.42200        -3.67000
H           2.95900         2.95700        -2.75300
C           6.45300        -0.27400         2.29400
O           4.08300        -0.78800         2.84200
C           7.15700         0.30600         1.27400
H           6.91200        -0.67200         3.18800
C           4.48200        -1.39600         4.06500
H           8.22800         0.44500         1.21000
H           4.99100        -0.67600         4.72000
H           3.56600        -1.73600         4.54600
H           5.14100        -2.25400         3.88700

D 8 9 32 33 F

