%mem=10GB 
%nprocshared=8 
# opt=modredundant b3lyp/6-311+g(d,p) 

 NDI_-5.pdb

-2  1
C          -2.56300        -2.99400        -0.40900
C          -2.25700        -1.55100        -0.22400
C          -3.30100        -0.60700        -0.08300
C          -4.65000        -1.02400        -0.11500
C          -4.99200        -2.45900        -0.30400
C          -0.94900        -1.13700        -0.21500
C          -2.96200         0.76400         0.10200
C          -1.59500         1.18800         0.12300
C          -0.56100         0.23200        -0.07200
C          -1.32800         2.61600         0.44600
C          -3.77700         3.11500         0.50800
C          -4.03500         1.67900         0.26800
C          -5.35600         1.25200         0.23000
C          -5.67200        -0.09800         0.03600
H          -6.69900        -0.44200         0.00800
H          -6.13300         1.99700         0.36100
H          -0.19000        -1.89500        -0.36900
N          -2.43200         3.47600         0.60800
N          -3.91600        -3.35300        -0.43800
O          -1.69500        -3.84700        -0.53200
O          -6.14900        -2.85000        -0.34000
O          -4.67600         3.93800         0.62900
O          -0.21200         3.09700         0.59600
C          -2.11100         4.87500         0.91200
H          -1.54000         4.93100         1.84000
H          -1.50000         5.29900         0.11100
H          -3.05000         5.41400         1.00300
C          -4.20600        -4.77900        -0.62500
H          -3.75900        -5.12600        -1.55900
H          -3.77500        -5.35500         0.19600
H          -5.28600        -4.89700        -0.64900
C           0.87600         0.48200        -0.17800
C           1.58800         1.66500        -0.21200
S           1.95700        -0.88300        -0.46000
C           2.96400         1.48800        -0.45100
H           1.12700         2.62800        -0.05900
C           3.35800         0.15500        -0.60300
O           3.90300         2.46800        -0.54100
C           4.68500        -0.35000        -0.81200
C           3.49400         3.79900        -0.24000
C           5.07200        -1.67800        -0.98700
S           6.10800         0.68600        -0.88500
H           4.39700         4.40800        -0.29100
H           2.76700         4.16600        -0.97400
H           3.06100         3.86300         0.76500
C           6.47200        -1.85700        -1.17300
O           4.12700        -2.65400        -0.96300
C           7.14900        -0.66800        -1.14100
H           6.95200        -2.81400        -1.32400
C           4.54800        -3.99600        -1.17900
H           8.21200        -0.51300        -1.25700
H           5.24700        -4.32400        -0.40000
H           3.64600        -4.60500        -1.13400
H           5.01800        -4.11200        -2.16300

D 8 9 32 33 F

