%mem=10GB 
%nprocshared=8 
# opt=modredundant b3lyp/6-311+g(d,p) 

 NDI_145.pdb

-2  1
C          -2.56300        -2.99400        -0.40900
C          -2.25700        -1.55100        -0.22400
C          -3.30100        -0.60700        -0.08300
C          -4.65000        -1.02400        -0.11500
C          -4.99200        -2.45900        -0.30400
C          -0.94900        -1.13700        -0.21500
C          -2.96200         0.76400         0.10200
C          -1.59500         1.18800         0.12300
C          -0.56100         0.23200        -0.07200
C          -1.32800         2.61600         0.44600
C          -3.77700         3.11500         0.50800
C          -4.03500         1.67900         0.26800
C          -5.35600         1.25200         0.23000
C          -5.67200        -0.09800         0.03600
H          -6.69900        -0.44200         0.00800
H          -6.13300         1.99700         0.36100
H          -0.19000        -1.89500        -0.36900
N          -2.43200         3.47600         0.60800
N          -3.91600        -3.35300        -0.43800
O          -1.69500        -3.84700        -0.53200
O          -6.14900        -2.85000        -0.34000
O          -4.67600         3.93800         0.62900
O          -0.21200         3.09700         0.59600
C          -2.11100         4.87500         0.91200
H          -1.54000         4.93100         1.84000
H          -1.50000         5.29900         0.11100
H          -3.05000         5.41400         1.00300
C          -4.20600        -4.77900        -0.62500
H          -3.75900        -5.12600        -1.55900
H          -3.77500        -5.35500         0.19600
H          -5.28600        -4.89700        -0.64900
C           0.87600         0.48200        -0.17800
C           1.95700        -0.26400         0.24900
S           1.42400         2.03400        -0.81200
C           3.19500         0.38500         0.07100
H           1.85600        -1.25100         0.67000
C           3.10400         1.65400        -0.51000
O           4.42000        -0.10400         0.40200
C           4.17900         2.54000        -0.85600
C           4.48900        -1.45200         0.85600
C           4.08500         3.81400        -1.41300
S           5.87600         2.13000        -0.61900
H           5.54900        -1.67000         0.98800
H           3.97100        -1.57400         1.81600
H           4.05800        -2.14100         0.12000
C           5.34100         4.44400        -1.64300
O           2.85900         4.33200        -1.68400
C           6.38900         3.64900        -1.26100
H           5.46300         5.43100        -2.06700
C           2.79300         5.64900        -2.21900
H           7.44400         3.87800        -1.32200
H           3.29600         5.70800        -3.19300
H           1.73400         5.87000        -2.34600
H           3.23900         6.37900        -1.53400

D 8 9 32 33 F

