%mem=100GB 
%nprocshared=16 
# opt=modredundant b3lyp/6-311+g(d,p) scrf=(pcm, solvent=water) 

 NDI_30.pdb

-1  2
C          -2.56300        -2.99400        -0.40900
C          -2.25700        -1.55100        -0.22400
C          -3.30100        -0.60700        -0.08300
C          -4.65000        -1.02400        -0.11500
C          -4.99200        -2.45900        -0.30400
C          -0.94900        -1.13700        -0.21500
C          -2.96200         0.76400         0.10200
C          -1.59500         1.18800         0.12300
C          -0.56100         0.23200        -0.07200
C          -1.32800         2.61600         0.44600
C          -3.77700         3.11500         0.50800
C          -4.03500         1.67900         0.26800
C          -5.35600         1.25200         0.23000
C          -5.67200        -0.09800         0.03600
H          -6.69900        -0.44200         0.00800
H          -6.13300         1.99700         0.36100
H          -0.19000        -1.89500        -0.36900
N          -2.43200         3.47600         0.60800
N          -3.91600        -3.35300        -0.43800
O          -1.69500        -3.84700        -0.53200
O          -6.14900        -2.85000        -0.34000
O          -4.67600         3.93800         0.62900
O          -0.21200         3.09700         0.59600
C          -2.11100         4.87500         0.91200
H          -1.54000         4.93100         1.84000
H          -1.50000         5.29900         0.11100
H          -3.05000         5.41400         1.00300
C          -4.20600        -4.77900        -0.62500
H          -3.75900        -5.12600        -1.55900
H          -3.77500        -5.35500         0.19600
H          -5.28600        -4.89700        -0.64900
C           0.87600         0.48200        -0.17800
C           1.66600         1.46900         0.38000
S           1.82900        -0.49600        -1.29500
C           3.00100         1.44200        -0.06900
H           1.29000         2.18100         1.09600
C           3.28300         0.42500        -0.98600
O           3.99600         2.29100         0.30300
C           4.54700         0.11200        -1.58800
C           3.71200         3.22300         1.34300
C           4.82200        -0.88800        -2.51900
S           6.02900         0.99200        -1.22400
H           4.64800         3.74300         1.54300
H           2.95200         3.94900         1.02800
H           3.37100         2.71100         2.25100
C           6.18400        -0.94600        -2.92800
O           3.81400        -1.69600        -2.94300
C           6.94500         0.00900        -2.30900
H           6.57900        -1.65500        -3.64300
C           4.11800        -2.68500        -3.92000
H           8.00300         0.19100        -2.43500
H           4.85600        -3.40400        -3.54300
H           3.18100        -3.20200        -4.12500
H           4.49300        -2.22900        -4.84400

D 8 9 32 33 F

