%mem=100GB 
%nprocshared=16 
# opt=modredundant b3lyp/6-311+g(d,p) scrf=(pcm, solvent=water) 

 NDI_75.pdb

-1  2
C          -2.56300        -2.99400        -0.40900
C          -2.25700        -1.55100        -0.22400
C          -3.30100        -0.60700        -0.08300
C          -4.65000        -1.02400        -0.11500
C          -4.99200        -2.45900        -0.30400
C          -0.94900        -1.13700        -0.21500
C          -2.96200         0.76400         0.10200
C          -1.59500         1.18800         0.12300
C          -0.56100         0.23200        -0.07200
C          -1.32800         2.61600         0.44600
C          -3.77700         3.11500         0.50800
C          -4.03500         1.67900         0.26800
C          -5.35600         1.25200         0.23000
C          -5.67200        -0.09800         0.03600
H          -6.69900        -0.44200         0.00800
H          -6.13300         1.99700         0.36100
H          -0.19000        -1.89500        -0.36900
N          -2.43200         3.47600         0.60800
N          -3.91600        -3.35300        -0.43800
O          -1.69500        -3.84700        -0.53200
O          -6.14900        -2.85000        -0.34000
O          -4.67600         3.93800         0.62900
O          -0.21200         3.09700         0.59600
C          -2.11100         4.87500         0.91200
H          -1.54000         4.93100         1.84000
H          -1.50000         5.29900         0.11100
H          -3.05000         5.41400         1.00300
C          -4.20600        -4.77900        -0.62500
H          -3.75900        -5.12600        -1.55900
H          -3.77500        -5.35500         0.19600
H          -5.28600        -4.89700        -0.64900
C           0.87600         0.48200        -0.17800
C           1.81200         0.79700         0.78700
S           1.60900         0.56100        -1.78000
C           3.08700         1.08900         0.26200
H           1.58400         0.80700         1.84100
C           3.17200         1.00000        -1.13100
O           4.19400         1.43400         0.97100
C           4.33200         1.19500        -1.95300
C           4.11000         1.37500         2.39200
C           4.41000         1.12900        -3.34300
S           5.92400         1.56700        -1.29700
H           5.11000         1.60600         2.76100
H           3.40000         2.11700         2.77800
H           3.81300         0.37600         2.73100
C           5.71200         1.37000        -3.86700
O           3.28900         0.84800        -4.05900
C           6.62300         1.61900        -2.87500
H           5.96100         1.36000        -4.91900
C           3.39200         0.82300        -5.47800
H           7.67600         1.83500        -2.98900
H           4.08800         0.04300        -5.81200
H           2.39300         0.59800        -5.84800
H           3.71700         1.79400        -5.87100

D 8 9 32 33 F

