%mem=10GB 
%nprocshared=8 
# opt=modredundant b3lyp/6-311+g(d,p) 

 pBTTT_80.pdb

0  1
C          -4.25000        -1.36000        -0.21000
C          -2.93000        -0.95000        -0.61000
C          -1.97000        -2.05000        -0.62000
C          -4.33000        -2.76000         0.10000
H          -5.10000        -0.70000        -0.14000
S          -2.80000        -3.56000        -0.11000
H          -5.23000        -3.27000         0.41000
C          -0.56000        -2.13000        -0.97000
S           0.72800        -1.61500         0.16100
C           1.98700        -2.02000        -0.95500
C           1.47400        -2.57200        -2.18300
C           0.04400        -2.65500        -2.19700
H          -0.50700        -3.18800        -2.95600
S           2.61400        -3.60800        -2.97700
C           3.81100        -3.32700        -1.71100
C           3.31400        -2.45600        -0.67000
H           4.72700        -3.89700        -1.64300
H           3.78100        -2.38500         0.30900
O          -2.40000         0.49000        -0.72000
H          -2.92000         1.52000        -0.76000

D 2 3 8 9 F

