%mem=10GB 
%nprocshared=8 
# opt=modredundant b3lyp/6-311+g(d,p) 

 pBTTT_-125.pdb

0  1
C          -4.25000        -1.36000        -0.21000
C          -2.93000        -0.95000        -0.61000
C          -1.97000        -2.05000        -0.62000
C          -4.33000        -2.76000         0.10000
H          -5.10000        -0.70000        -0.14000
S          -2.80000        -3.56000        -0.11000
H          -5.23000        -3.27000         0.41000
C          -0.56000        -2.13000        -0.97000
S           0.05000        -3.29000        -2.18900
C           1.68400        -2.75200        -2.00600
C           1.80500        -1.67900        -1.05300
C           0.54700        -1.30800        -0.47600
H           0.41600        -0.42500         0.12900
S           3.18400        -0.67300        -1.35200
C           3.65000        -1.65600        -2.74200
C           2.72400        -2.73900        -2.98200
H           4.42800        -1.35500        -3.42900
H           2.67900        -3.27500        -3.92700
O          -2.40000         0.49000        -0.72000
H          -2.92000         1.52000        -0.76000

D 2 3 8 9 F

