%mem=10GB 
%nprocshared=8 
# opt=modredundant b3lyp/6-311+g(d,p) 

 pBTTT_-170.pdb

0  1
C          -4.25000        -1.36000        -0.21000
C          -2.93000        -0.95000        -0.61000
C          -1.97000        -2.05000        -0.62000
C          -4.33000        -2.76000         0.10000
H          -5.10000        -0.70000        -0.14000
S          -2.80000        -3.56000        -0.11000
H          -5.23000        -3.27000         0.41000
C          -0.56000        -2.13000        -0.97000
S           0.29000        -3.69700        -1.12800
C           1.79000        -2.93800        -1.53700
C           1.68200        -1.50200        -1.59100
C           0.36000        -1.03700        -1.29100
H           0.04900        -0.01500        -1.44100
S           2.85800        -0.78300        -2.64100
C           3.53900        -2.36500        -3.02700
C           2.83700        -3.44100        -2.36400
H           4.26700        -2.50500        -3.81300
H           2.92100        -4.47800        -2.67800
O          -2.40000         0.49000        -0.72000
H          -2.92000         1.52000        -0.76000

D 2 3 8 9 F

