%mem=10GB 
%nprocshared=8 
# opt=modredundant b3lyp/6-311+g(d,p) 

 pBTTT_-80.pdb

0  1
C          -4.25000        -1.36000        -0.21000
C          -2.93000        -0.95000        -0.61000
C          -1.97000        -2.05000        -0.62000
C          -4.33000        -2.76000         0.10000
H          -5.10000        -0.70000        -0.14000
S          -2.80000        -3.56000        -0.11000
H          -5.23000        -3.27000         0.41000
C          -0.56000        -2.13000        -0.97000
S          -0.01000        -2.23400        -2.67000
C           1.65900        -2.28100        -2.21500
C           1.84200        -2.19300        -0.78900
C           0.60100        -2.09000        -0.07900
H           0.54400        -1.85300         0.97200
S           3.38300        -1.53300        -0.35200
C           3.83800        -1.36900        -2.05000
C           2.78700        -1.80000        -2.94300
H           4.72200        -0.83200        -2.36300
H           2.76200        -1.52700        -3.99500
O          -2.40000         0.49000        -0.72000
H          -2.92000         1.52000        -0.76000

D 2 3 8 9 F

