%mem=10GB 
%nprocshared=8 
# opt=modredundant b3lyp/6-311+g(d,p) 

 NDI_-25.pdb

0  1
C          -2.56300        -2.99400        -0.40900
C          -2.25700        -1.55100        -0.22400
C          -3.30100        -0.60700        -0.08300
C          -4.65000        -1.02400        -0.11500
C          -4.99200        -2.45900        -0.30400
C          -0.94900        -1.13700        -0.21500
C          -2.96200         0.76400         0.10200
C          -1.59500         1.18800         0.12300
C          -0.56100         0.23200        -0.07200
C          -1.32800         2.61600         0.44600
C          -3.77700         3.11500         0.50800
C          -4.03500         1.67900         0.26800
C          -5.35600         1.25200         0.23000
C          -5.67200        -0.09800         0.03600
H          -6.69900        -0.44200         0.00800
H          -6.13300         1.99700         0.36100
H          -0.19000        -1.89500        -0.36900
N          -2.43200         3.47600         0.60800
N          -3.91600        -3.35300        -0.43800
O          -1.69500        -3.84700        -0.53200
O          -6.14900        -2.85000        -0.34000
O          -4.67600         3.93800         0.62900
O          -0.21200         3.09700         0.59600
C          -2.11100         4.87500         0.91200
H          -1.54000         4.93100         1.84000
H          -1.50000         5.29900         0.11100
H          -3.05000         5.41400         1.00300
C          -4.20600        -4.77900        -0.62500
H          -3.75900        -5.12600        -1.55900
H          -3.77500        -5.35500         0.19600
H          -5.28600        -4.89700        -0.64900
C           0.87600         0.48200        -0.17800
C           1.57100         1.61000        -0.57000
S           1.99300        -0.85900         0.07500
C           2.96200         1.41000        -0.66000
H           1.08800         2.55100        -0.77600
C           3.38400         0.11800        -0.33300
O           3.89000         2.33500        -1.02400
C           4.72900        -0.38100        -0.28800
C           3.44400         3.67600        -1.21200
C           5.14600        -1.67600         0.01600
S           6.13800         0.62000        -0.62800
H           4.33900         4.26400        -1.41600
H           2.75900         3.75000        -2.06500
H           2.94800         4.05800        -0.31200
C           6.55700        -1.85900        -0.02300
O           4.21600        -2.62000         0.31700
C           7.21300        -0.70400        -0.35600
H           7.06000        -2.79400         0.18400
C           4.66900        -3.94100         0.58800
H           8.27900        -0.56000        -0.46000
H           5.32300        -3.96500         1.46900
H           3.77500        -4.53100         0.78600
H           5.20100        -4.36400        -0.27200

D 8 9 32 33 F

