%mem=10GB 
%nprocshared=8 
# opt=modredundant b3lyp/6-311+g(d,p) 

 NDI_80.pdb

0  1
C          -2.56300        -2.99400        -0.40900
C          -2.25700        -1.55100        -0.22400
C          -3.30100        -0.60700        -0.08300
C          -4.65000        -1.02400        -0.11500
C          -4.99200        -2.45900        -0.30400
C          -0.94900        -1.13700        -0.21500
C          -2.96200         0.76400         0.10200
C          -1.59500         1.18800         0.12300
C          -0.56100         0.23200        -0.07200
C          -1.32800         2.61600         0.44600
C          -3.77700         3.11500         0.50800
C          -4.03500         1.67900         0.26800
C          -5.35600         1.25200         0.23000
C          -5.67200        -0.09800         0.03600
H          -6.69900        -0.44200         0.00800
H          -6.13300         1.99700         0.36100
H          -0.19000        -1.89500        -0.36900
N          -2.43200         3.47600         0.60800
N          -3.91600        -3.35300        -0.43800
O          -1.69500        -3.84700        -0.53200
O          -6.14900        -2.85000        -0.34000
O          -4.67600         3.93800         0.62900
O          -0.21200         3.09700         0.59600
C          -2.11100         4.87500         0.91200
H          -1.54000         4.93100         1.84000
H          -1.50000         5.29900         0.11100
H          -3.05000         5.41400         1.00300
C          -4.20600        -4.77900        -0.62500
H          -3.75900        -5.12600        -1.55900
H          -3.77500        -5.35500         0.19600
H          -5.28600        -4.89700        -0.64900
C           0.87600         0.48200        -0.17800
C           1.82900         0.70800         0.79600
S           1.58600         0.69300        -1.77900
C           3.09700         1.03600         0.27900
H           1.61600         0.62900         1.85000
C           3.16100         1.06700        -1.11800
O           4.21700         1.31300         0.99800
C           4.31100         1.32400        -1.93800
C           4.15400         1.13400         2.41000
C           4.36800         1.37800        -3.33000
S           5.91400         1.63000        -1.27700
H           5.16000         1.32600         2.78200
H           3.45500         1.84300         2.86900
H           3.85400         0.11000         2.66600
C           5.66400         1.65500        -3.85000
O           3.23500         1.16600        -4.04900
C           6.59000         1.81400        -2.85500
H           5.89700         1.73500        -4.90300
C           3.31700         1.26100        -5.46700
H           7.64400         2.03300        -2.96600
H           4.00300         0.50900        -5.87700
H           2.31100         1.07500        -5.84000
H           3.64300         2.26100        -5.78000

D 8 9 32 33 F

