%mem=10GB 
%nprocshared=8 
# opt=modredundant b3lyp/6-311+g(d,p) 

 pg2T_TT_110.pdb

0  1
C          -4.25000        -1.36000        -0.21000
C          -2.93000        -0.95000        -0.61000
C          -1.97000        -2.05000        -0.62000
C          -4.33000        -2.76000         0.10000
S          -2.80000        -3.56000        -0.11000
H          -5.23000        -3.27000         0.41000
C          -0.56000        -2.13000        -0.97000
S           0.71000        -2.39400         0.26400
C           1.97700        -2.36600        -0.91300
C           1.47800        -2.18700        -2.25300
C           0.05100        -2.07000        -2.29900
H          -0.51000        -2.09400        -3.22000
S           2.53900        -2.84600        -3.45400
C           3.68300        -3.36600        -2.21500
C           3.22800        -3.05100        -0.88100
H           4.52300        -4.00900        -2.43700
H           3.64200        -3.52100         0.00700
H          -2.89000         0.24000        -0.97000
O          -5.60000        -0.36000        -0.40000
H          -5.76000         0.85000        -0.75000

D 2 3 7 8 F

