%mem=10GB 
%nprocshared=8 
# opt=modredundant b3lyp/6-311+g(d,p) 

 pg2T_TT_-55.pdb

0  1
C          -4.25000        -1.36000        -0.21000
C          -2.93000        -0.95000        -0.61000
C          -1.97000        -2.05000        -0.62000
C          -4.33000        -2.76000         0.10000
S          -2.80000        -3.56000        -0.11000
H          -5.23000        -3.27000         0.41000
C          -0.56000        -2.13000        -0.97000
S           0.05400        -1.58900        -2.56200
C           1.68800        -1.99500        -2.16400
C           1.81400        -2.51700        -0.82700
C           0.55800        -2.58200        -0.14000
H           0.47700        -2.78900         0.91600
S           3.39000        -2.26200        -0.15600
C           3.93500        -1.46800        -1.63600
C           2.88800        -1.38200        -2.62900
H           4.88000        -0.94800        -1.70000
H           2.93700        -0.70300        -3.47600
H          -2.89000         0.24000        -0.97000
O          -5.60000        -0.36000        -0.40000
H          -5.76000         0.85000        -0.75000

D 2 3 7 8 F

