%mem=10GB 
%nprocshared=8 
# opt=modredundant b3lyp/6-311+g(d,p) 

 pg2T_TT_-145.pdb

0  1
C          -4.25000        -1.36000        -0.21000
C          -2.93000        -0.95000        -0.61000
C          -1.97000        -2.05000        -0.62000
C          -4.33000        -2.76000         0.10000
S          -2.80000        -3.56000        -0.11000
H          -5.23000        -3.27000         0.41000
C          -0.56000        -2.13000        -0.97000
S           0.14100        -3.57700        -1.75700
C           1.72400        -2.88200        -1.81500
C           1.75700        -1.54600        -1.27500
C           0.47500        -1.10600        -0.81200
H           0.27100        -0.08500        -0.52900
S           3.04400        -0.59100        -1.93500
C           3.58500        -1.94000        -2.93600
C           2.75400        -3.11100        -2.77400
H           4.33100        -1.82400        -3.70900
H           2.75100        -3.93200        -3.48700
H          -2.89000         0.24000        -0.97000
O          -5.60000        -0.36000        -0.40000
H          -5.76000         0.85000        -0.75000

D 2 3 7 8 F

