%mem=10GB 
%nprocshared=8 
# opt=modredundant b3lyp/6-311+g(d,p) 

 pg2T_TT_-60.pdb

0  1
C          -4.25000        -1.36000        -0.21000
C          -2.93000        -0.95000        -0.61000
C          -1.97000        -2.05000        -0.62000
C          -4.33000        -2.76000         0.10000
S          -2.80000        -3.56000        -0.11000
H          -5.23000        -3.27000         0.41000
C          -0.56000        -2.13000        -0.97000
S           0.03600        -1.71200        -2.60500
C           1.68000        -2.05000        -2.18400
C           1.82200        -2.45400        -0.80900
C           0.57100        -2.48700        -0.11100
H           0.49800        -2.60600         0.95900
S           3.39500        -2.11100        -0.17000
C           3.91700        -1.43400        -1.71500
C           2.86500        -1.45300        -2.70600
H           4.85100        -0.90100        -1.82800
H           2.89600        -0.84700        -3.60700
H          -2.89000         0.24000        -0.97000
O          -5.60000        -0.36000        -0.40000
H          -5.76000         0.85000        -0.75000

D 2 3 7 8 F

