%mem=10GB 
%nprocshared=8 
# opt=modredundant b3lyp/6-311+g(d,p) 

 pg2T_TT_-100.pdb

0  1
C          -4.25000        -1.36000        -0.21000
C          -2.93000        -0.95000        -0.61000
C          -1.97000        -2.05000        -0.62000
C          -4.33000        -2.76000         0.10000
S          -2.80000        -3.56000        -0.11000
H          -5.23000        -3.27000         0.41000
C          -0.56000        -2.13000        -0.97000
S          -0.01100        -2.74900        -2.55700
C           1.65800        -2.51000        -2.16700
C           1.83900        -1.93900        -0.85700
C           0.59800        -1.70500        -0.18100
H           0.52500        -1.13700         0.73400
S           3.32000        -1.05200        -0.71400
C           3.75100        -1.42600        -2.38500
C           2.73700        -2.21100        -3.05000
H           4.58500        -0.95500        -2.88700
H           2.68300        -2.30600        -4.13200
H          -2.89000         0.24000        -0.97000
O          -5.60000        -0.36000        -0.40000
H          -5.76000         0.85000        -0.75000

D 2 3 7 8 F

