%mem=100GB 
%nprocshared=8 
# opt=modredundant hf/aug-cc-pvdz 

 pBTTT_15.pdb

0  1
C          -4.25000        -1.36000        -0.21000
C          -2.93000        -0.95000        -0.61000
C          -1.97000        -2.05000        -0.62000
C          -4.33000        -2.76000         0.10000
H          -5.10000        -0.70000        -0.14000
S          -2.80000        -3.56000        -0.11000
H          -5.23000        -3.27000         0.41000
C          -0.56000        -2.13000        -0.97000
S           0.45900        -0.66800        -1.14000
C           1.86800        -1.59300        -1.52900
C           1.61500        -3.01200        -1.51300
C           0.25700        -3.32600        -1.18400
H          -0.07700        -4.32900        -0.96500
S           3.04000        -3.94100        -1.18400
C           4.01800        -2.47500        -1.07200
C           3.23300        -1.27700        -1.26400
H           5.03800        -2.48600        -0.71400
H           3.58300        -0.29200        -0.96600
O          -2.40000         0.49000        -0.72000
H          -2.92000         1.52000        -0.76000

D 2 3 8 9 F

