%mem=100GB 
%nprocshared=8 
# opt=modredundant hf/aug-cc-pvdz 

 pBTTT_85.pdb

0  1
C          -4.25000        -1.36000        -0.21000
C          -2.93000        -0.95000        -0.61000
C          -1.97000        -2.05000        -0.62000
C          -4.33000        -2.76000         0.10000
H          -5.10000        -0.70000        -0.14000
S          -2.80000        -3.56000        -0.11000
H          -5.23000        -3.27000         0.41000
C          -0.56000        -2.13000        -0.97000
S           0.73200        -1.74000         0.20600
C           1.98800        -2.07500        -0.93600
C           1.47100        -2.51100        -2.20800
C           0.04000        -2.56200        -2.23400
H          -0.51800        -3.01700        -3.03800
S           2.59400        -3.50000        -3.08200
C           3.78900        -3.35200        -1.79200
C           3.30400        -2.56200        -0.68300
H           4.69300        -3.94500        -1.76900
H           3.76800        -2.58300         0.30000
O          -2.40000         0.49000        -0.72000
H          -2.92000         1.52000        -0.76000

D 2 3 8 9 F

