%mem=100GB 
%nprocshared=8 
# opt=modredundant hf/aug-cc-pvdz 

 pBTTT_-10.pdb

0  1
C          -4.25000        -1.36000        -0.21000
C          -2.93000        -0.95000        -0.61000
C          -1.97000        -2.05000        -0.62000
C          -4.33000        -2.76000         0.10000
H          -5.10000        -0.70000        -0.14000
S          -2.80000        -3.56000        -0.11000
H          -5.23000        -3.27000         0.41000
C          -0.56000        -2.13000        -0.97000
S           0.29700        -0.77600        -1.76800
C           1.79700        -1.63800        -1.80800
C           1.69600        -2.94200        -1.20300
C           0.38000        -3.22300        -0.71300
H           0.15400        -4.07400        -0.08900
S           3.21200        -3.51100        -0.58800
C           4.02800        -2.04300        -1.12800
C           3.12000        -1.11000        -1.75700
H           5.04400        -1.80600        -0.84400
H           3.36400        -0.06200        -1.90300
O          -2.40000         0.49000        -0.72000
H          -2.92000         1.52000        -0.76000

D 2 3 8 9 F

