%mem=100GB 
%nprocshared=8 
# opt=modredundant hf/aug-cc-pvdz 

 pBTTT_-5.pdb

0  1
C          -4.25000        -1.36000        -0.21000
C          -2.93000        -0.95000        -0.61000
C          -1.97000        -2.05000        -0.62000
C          -4.33000        -2.76000         0.10000
H          -5.10000        -0.70000        -0.14000
S          -2.80000        -3.56000        -0.11000
H          -5.23000        -3.27000         0.41000
C          -0.56000        -2.13000        -0.97000
S           0.33000        -0.73200        -1.64700
C           1.81100        -1.61900        -1.75400
C           1.68000        -2.96700        -1.26200
C           0.35500        -3.26100        -0.80300
H           0.10900        -4.15700        -0.25400
S           3.18100        -3.61800        -0.69100
C           4.03000        -2.12700        -1.10200
C           3.14500        -1.12600        -1.65400
H           5.04900        -1.93700        -0.79500
H           3.41100        -0.07400        -1.71000
O          -2.40000         0.49000        -0.72000
H          -2.92000         1.52000        -0.76000

D 2 3 8 9 F

