%mem=100GB 
%nprocshared=8 
# opt=modredundant hf/aug-cc-pvdz 

 pBTTT_125.pdb

0  1
C          -4.25000        -1.36000        -0.21000
C          -2.93000        -0.95000        -0.61000
C          -1.97000        -2.05000        -0.62000
C          -4.33000        -2.76000         0.10000
H          -5.10000        -0.70000        -0.14000
S          -2.80000        -3.56000        -0.11000
H          -5.23000        -3.27000         0.41000
C          -0.56000        -2.13000        -0.97000
S           0.66400        -2.77600         0.16600
C           1.95700        -2.53500        -0.95800
C           1.49900        -1.99400        -2.21300
C           0.08300        -1.77800        -2.23800
H          -0.45900        -1.53500        -3.13900
S           2.54400        -2.39800        -3.53500
C           3.62700        -3.28400        -2.45900
C           3.16200        -3.28500        -1.09100
H           4.43200        -3.90400        -2.83000
H           3.52700        -3.98800        -0.34700
O          -2.40000         0.49000        -0.72000
H          -2.92000         1.52000        -0.76000

D 2 3 8 9 F

