%mem=100GB 
%nprocshared=8 
# opt=modredundant hf/aug-cc-pvdz 

 pBTTT_-115.pdb

0  1
C          -4.25000        -1.36000        -0.21000
C          -2.93000        -0.95000        -0.61000
C          -1.97000        -2.05000        -0.62000
C          -4.33000        -2.76000         0.10000
H          -5.10000        -0.70000        -0.14000
S          -2.80000        -3.56000        -0.11000
H          -5.23000        -3.27000         0.41000
C          -0.56000        -2.13000        -0.97000
S           0.01800        -3.09300        -2.36400
C           1.67000        -2.66400        -2.08300
C           1.82200        -1.77200        -0.96200
C           0.57300        -1.45100        -0.33800
H           0.47000        -0.67700         0.40600
S           3.24500        -0.79000        -1.07800
C           3.68800        -1.54500        -2.61100
C           2.72200        -2.53100        -3.03600
H           4.48700        -1.16600        -3.23300
H           2.66800        -2.89800        -4.05800
O          -2.40000         0.49000        -0.72000
H          -2.92000         1.52000        -0.76000

D 2 3 8 9 F

