%mem=10GB 
%nprocshared=8 
# opt=modredundant b3lyp/6-311+g(d,p) 

 NDI_35.pdb

-1  2
C          -2.56300        -2.99400        -0.40900
C          -2.25700        -1.55100        -0.22400
C          -3.30100        -0.60700        -0.08300
C          -4.65000        -1.02400        -0.11500
C          -4.99200        -2.45900        -0.30400
C          -0.94900        -1.13700        -0.21500
C          -2.96200         0.76400         0.10200
C          -1.59500         1.18800         0.12300
C          -0.56100         0.23200        -0.07200
C          -1.32800         2.61600         0.44600
C          -3.77700         3.11500         0.50800
C          -4.03500         1.67900         0.26800
C          -5.35600         1.25200         0.23000
C          -5.67200        -0.09800         0.03600
H          -6.69900        -0.44200         0.00800
H          -6.13300         1.99700         0.36100
H          -0.19000        -1.89500        -0.36900
N          -2.43200         3.47600         0.60800
N          -3.91600        -3.35300        -0.43800
O          -1.69500        -3.84700        -0.53200
O          -6.14900        -2.85000        -0.34000
O          -4.67600         3.93800         0.62900
O          -0.21200         3.09700         0.59600
C          -2.11100         4.87500         0.91200
H          -1.54000         4.93100         1.84000
H          -1.50000         5.29900         0.11100
H          -3.05000         5.41400         1.00300
C          -4.20600        -4.77900        -0.62500
H          -3.75900        -5.12600        -1.55900
H          -3.77500        -5.35500         0.19600
H          -5.28600        -4.89700        -0.64900
C           0.87600         0.48200        -0.17800
C           1.68000         1.41300         0.45000
S           1.80500        -0.40200        -1.38900
C           3.00900         1.41700        -0.01900
H           1.32100         2.06400         1.23100
C           3.27000         0.48000        -1.02400
O           4.01500         2.22500         0.40900
C           4.52400         0.21300        -1.67000
C           3.75200         3.06600         1.52900
C           4.77700        -0.70500        -2.68800
S           6.01700         1.05000        -1.25400
H           4.69500         3.56200         1.75900
H           2.99400         3.82100         1.28800
H           3.42200         2.48100         2.39500
C           6.13300        -0.73500        -3.12100
O           3.75800        -1.46700        -3.16300
C           6.90900         0.15900        -2.43400
H           6.51300        -1.38300        -3.89900
C           4.04000        -2.37100        -4.22600
H           7.96700         0.34500        -2.56000
H           4.77900        -3.12400        -3.92300
H           3.09700        -2.86300        -4.46100
H           4.40500        -1.83900        -5.11300

D 8 9 32 33 F

