%mem=10GB 
%nprocshared=8 
# opt=modredundant b3lyp/6-311+g(d,p) 

 pBTTT_-55.pdb

0  1
C          -4.25000        -1.36000        -0.21000
C          -2.93000        -0.95000        -0.61000
C          -1.97000        -2.05000        -0.62000
C          -2.66000         0.47000        -0.96000
C          -4.33000        -2.76000         0.10000
H          -5.10000        -0.70000        -0.14000
S          -2.80000        -3.56000        -0.11000
H          -5.23000        -3.27000         0.41000
C          -0.56000        -2.13000        -0.97000
S           0.05400        -1.58900        -2.56200
C           1.68800        -1.99500        -2.16400
C           1.81400        -2.51700        -0.82700
C           0.55800        -2.58200        -0.14000
H           0.47700        -2.78900         0.91600
S           3.39000        -2.26200        -0.15600
C           3.93500        -1.46800        -1.63600
C           2.88800        -1.38200        -2.62900
H           4.88000        -0.94800        -1.70000
H           2.93700        -0.70300        -3.47600
H          -3.55000         1.09000        -0.83000
H          -2.35000         0.56000        -2.00000
H          -1.88000         0.89000        -0.31000

D 2 3 9 10 F

