%mem=10GB 
%nprocshared=8 
# opt=modredundant b3lyp/6-311+g(d,p) 

 pBTTT_95.pdb

0  1
C          -4.25000        -1.36000        -0.21000
C          -2.93000        -0.95000        -0.61000
C          -1.97000        -2.05000        -0.62000
C          -2.66000         0.47000        -0.96000
C          -4.33000        -2.76000         0.10000
H          -5.10000        -0.70000        -0.14000
S          -2.80000        -3.56000        -0.11000
H          -5.23000        -3.27000         0.41000
C          -0.56000        -2.13000        -0.97000
S           0.73200        -1.99900         0.26200
C           1.98800        -2.19100        -0.91200
C           1.47000        -2.38400        -2.24300
C           0.03800        -2.36900        -2.28500
H          -0.52700        -2.65800        -3.15800
S           2.56200        -3.25900        -3.26400
C           3.74600        -3.38100        -1.96000
C           3.27900        -2.76800        -0.73700
H           4.62400        -4.00700        -2.03200
H           3.72800        -2.97400         0.23100
H          -3.55000         1.09000        -0.83000
H          -2.35000         0.56000        -2.00000
H          -1.88000         0.89000        -0.31000

D 2 3 9 10 F

