%mem=10GB 
%nprocshared=8 
# opt=modredundant b3lyp/6-311+g(d,p) 

 pBTTT_-85.pdb

0  1
C          -4.25000        -1.36000        -0.21000
C          -2.93000        -0.95000        -0.61000
C          -1.97000        -2.05000        -0.62000
C          -2.66000         0.47000        -0.96000
C          -4.33000        -2.76000         0.10000
H          -5.10000        -0.70000        -0.14000
S          -2.80000        -3.56000        -0.11000
H          -5.23000        -3.27000         0.41000
C          -0.56000        -2.13000        -0.97000
S          -0.01400        -2.36600        -2.65800
C           1.65700        -2.34000        -2.21100
C           1.84300        -2.12800        -0.79800
C           0.60400        -1.99100        -0.09200
H           0.54500        -1.66700         0.93500
S           3.37200        -1.40200        -0.42700
C           3.81600        -1.37200        -2.13500
C           2.77100        -1.89800        -2.98300
H           4.68800        -0.84500        -2.49800
H           2.73600        -1.71600        -4.05400
H          -3.55000         1.09000        -0.83000
H          -2.35000         0.56000        -2.00000
H          -1.88000         0.89000        -0.31000

D 2 3 9 10 F

