%mem=10GB 
%nprocshared=8 
# opt=modredundant b3lyp/6-311+g(d,p) 

 NDI_-130.pdb

0  1
C          -2.56000        -2.99000        -0.41000
C          -2.26000        -1.55000        -0.22000
C          -3.30000        -0.61000        -0.08000
C          -4.65000        -1.02000        -0.12000
C          -4.99000        -2.46000        -0.30000
C          -0.95000        -1.14000        -0.22000
C          -2.96000         0.76000         0.10000
C          -1.60000         1.19000         0.12000
C          -0.56000         0.23000        -0.07000
C          -1.33000         2.62000         0.45000
C          -3.78000         3.12000         0.51000
C          -4.03000         1.68000         0.27000
C          -5.36000         1.25000         0.23000
C          -5.67000        -0.10000         0.04000
H          -6.70000        -0.44000         0.01000
H          -6.13000         2.00000         0.36000
H          -0.19000        -1.90000        -0.37000
N          -2.43000         3.48000         0.61000
N          -3.92000        -3.35000        -0.44000
O          -1.69000        -3.85000        -0.53000
O          -6.15000        -2.85000        -0.34000
O          -4.68000         3.94000         0.63000
O          -0.21000         3.10000         0.60000
C           0.88000         0.48000        -0.18000
C           1.79800         0.05300        -1.11200
S           1.69100         1.34700         1.11800
C           3.12800         0.40700        -0.79500
H           1.53000        -0.50100        -2.00400
C           3.25800         1.14200         0.38600
O           4.24100         0.11600        -1.53200
C           4.46500         1.67800         0.95400
C           4.60200         2.38400         2.14700
S           6.04100         1.53500         0.18000
C           5.93000         2.79800         2.43200
O           3.50200         2.61800         2.90800
C           6.81300         2.40000         1.45400
H           6.23200         3.34900         3.30600
H           7.88100         2.58000         1.41800
H           3.60400         2.92200         3.94300
H           4.00900        -0.16300        -2.47100
H          -4.23000        -4.36000        -0.17000
H          -2.15000         4.41000         0.36000

D 8 9 24 25 F

