%mem=10GB 
%nprocshared=8 
# opt=modredundant b3lyp/6-311+g(d,p) 

 NDI_90.pdb

0  1
C          -2.56000        -2.99000        -0.41000
C          -2.26000        -1.55000        -0.22000
C          -3.30000        -0.61000        -0.08000
C          -4.65000        -1.02000        -0.12000
C          -4.99000        -2.46000        -0.30000
C          -0.95000        -1.14000        -0.22000
C          -2.96000         0.76000         0.10000
C          -1.60000         1.19000         0.12000
C          -0.56000         0.23000        -0.07000
C          -1.33000         2.62000         0.45000
C          -3.78000         3.12000         0.51000
C          -4.03000         1.68000         0.27000
C          -5.36000         1.25000         0.23000
C          -5.67000        -0.10000         0.04000
H          -6.70000        -0.44000         0.01000
H          -6.13000         2.00000         0.36000
H          -0.19000        -1.90000        -0.37000
N          -2.43000         3.48000         0.61000
N          -3.92000        -3.35000        -0.44000
O          -1.69000        -3.85000        -0.53000
O          -6.15000        -2.85000        -0.34000
O          -4.68000         3.94000         0.63000
O          -0.21000         3.10000         0.60000
C           0.88000         0.48000        -0.18000
C           1.85900         0.53300         0.78500
S           1.54500         0.93000        -1.74500
C           3.12000         0.93100         0.28700
H           1.68500         0.29400         1.82700
C           3.14100         1.17000        -1.09000
O           4.26900         1.07300         1.01100
C           4.27000         1.54800        -1.89500
C           4.28700         1.81700        -3.26200
S           5.89900         1.72200        -1.24900
C           5.56800         2.15200        -3.77500
O           3.13000         1.73500        -3.96700
C           6.53300         2.14500        -2.79400
H           5.77800         2.39500        -4.80300
H           7.58800         2.36200        -2.90600
H           3.05300         2.18300        -4.95000
H           4.20700         0.62100         1.90800
H          -4.23000        -4.36000        -0.17000
H          -2.15000         4.41000         0.36000

D 8 9 24 25 F

