%mem=10GB 
%nprocshared=8 
# opt=modredundant b3lyp/6-311+g(d,p) 

 NDI_110.pdb

0  1
C          -2.56000        -2.99000        -0.41000
C          -2.26000        -1.55000        -0.22000
C          -3.30000        -0.61000        -0.08000
C          -4.65000        -1.02000        -0.12000
C          -4.99000        -2.46000        -0.30000
C          -0.95000        -1.14000        -0.22000
C          -2.96000         0.76000         0.10000
C          -1.60000         1.19000         0.12000
C          -0.56000         0.23000        -0.07000
C          -1.33000         2.62000         0.45000
C          -3.78000         3.12000         0.51000
C          -4.03000         1.68000         0.27000
C          -5.36000         1.25000         0.23000
C          -5.67000        -0.10000         0.04000
H          -6.70000        -0.44000         0.01000
H          -6.13000         2.00000         0.36000
H          -0.19000        -1.90000        -0.37000
N          -2.43000         3.48000         0.61000
N          -3.92000        -3.35000        -0.44000
O          -1.69000        -3.85000        -0.53000
O          -6.15000        -2.85000        -0.34000
O          -4.68000         3.94000         0.63000
O          -0.21000         3.10000         0.60000
C           0.88000         0.48000        -0.18000
C           1.91100         0.19000         0.68400
S           1.47500         1.42100        -1.54200
C           3.15700         0.71300         0.26900
H           1.78400        -0.38300         1.59400
C           3.11200         1.40100        -0.94600
O           4.34700         0.58500         0.92600
C           4.20900         2.01100        -1.64700
C           4.16200         2.72400        -2.84300
S           5.87600         1.93100        -1.08300
C           5.42500         3.19200        -3.29300
O           2.96700         2.90200        -3.46100
C           6.44000         2.84000        -2.43400
H           5.58700         3.76300        -4.19100
H           7.49400         3.06600        -2.53300
H           2.85300         3.65600        -4.23000
H           4.31800        -0.14200         1.62100
H          -4.23000        -4.36000        -0.17000
H          -2.15000         4.41000         0.36000

D 8 9 24 25 F

