%mem=10GB 
%nprocshared=8 
# opt=modredundant b3lyp/6-311+g(d,p) 

 NDI_-20.pdb

0  1
C          -2.56000        -2.99000        -0.41000
C          -2.26000        -1.55000        -0.22000
C          -3.30000        -0.61000        -0.08000
C          -4.65000        -1.02000        -0.12000
C          -4.99000        -2.46000        -0.30000
C          -0.95000        -1.14000        -0.22000
C          -2.96000         0.76000         0.10000
C          -1.60000         1.19000         0.12000
C          -0.56000         0.23000        -0.07000
C          -1.33000         2.62000         0.45000
C          -3.78000         3.12000         0.51000
C          -4.03000         1.68000         0.27000
C          -5.36000         1.25000         0.23000
C          -5.67000        -0.10000         0.04000
H          -6.70000        -0.44000         0.01000
H          -6.13000         2.00000         0.36000
H          -0.19000        -1.90000        -0.37000
N          -2.43000         3.48000         0.61000
N          -3.92000        -3.35000        -0.44000
O          -1.69000        -3.85000        -0.53000
O          -6.15000        -2.85000        -0.34000
O          -4.68000         3.94000         0.63000
O          -0.21000         3.10000         0.60000
C           0.88000         0.48000        -0.18000
C           1.57200         1.62800        -0.49300
S           1.98900        -0.87800        -0.03900
C           2.96400         1.42800        -0.62300
H           1.09800         2.59300        -0.62700
C           3.37800         0.11400        -0.38600
O           3.89400         2.38000        -0.92900
C           4.72200        -0.39600        -0.40300
C           5.13400        -1.71100        -0.19800
S           6.13400         0.61800        -0.68200
C           6.54000        -1.89900        -0.26300
O           4.20100        -2.66700         0.04500
C           7.20400        -0.72300        -0.52500
H           7.04300        -2.84200        -0.13400
H           8.27300        -0.57900        -0.62700
H           4.45200        -3.71600        -0.05300
H           3.53300         3.31200        -0.80700
H          -4.23000        -4.36000        -0.17000
H          -2.15000         4.41000         0.36000

D 8 9 24 25 F

