%mem=10GB 
%nprocshared=8 
# opt=modredundant b3lyp/6-311+g(d,p) 

 NDI_-120.pdb

0  1
C          -2.56000        -2.99000        -0.41000
C          -2.26000        -1.55000        -0.22000
C          -3.30000        -0.61000        -0.08000
C          -4.65000        -1.02000        -0.12000
C          -4.99000        -2.46000        -0.30000
C          -0.95000        -1.14000        -0.22000
C          -2.96000         0.76000         0.10000
C          -1.60000         1.19000         0.12000
C          -0.56000         0.23000        -0.07000
C          -1.33000         2.62000         0.45000
C          -3.78000         3.12000         0.51000
C          -4.03000         1.68000         0.27000
C          -5.36000         1.25000         0.23000
C          -5.67000        -0.10000         0.04000
H          -6.70000        -0.44000         0.01000
H          -6.13000         2.00000         0.36000
H          -0.19000        -1.90000        -0.37000
N          -2.43000         3.48000         0.61000
N          -3.92000        -3.35000        -0.44000
O          -1.69000        -3.85000        -0.53000
O          -6.15000        -2.85000        -0.34000
O          -4.68000         3.94000         0.63000
O          -0.21000         3.10000         0.60000
C           0.88000         0.48000        -0.18000
C           1.76400         0.20900        -1.19900
S           1.74100         1.10400         1.22100
C           3.10800         0.49000        -0.86800
H           1.46200        -0.18200        -2.16300
C           3.28400         1.01100         0.41700
O           4.19500         0.31700        -1.67700
C           4.51400         1.42900         1.03100
C           4.69600         1.92000         2.32200
S           6.06500         1.40400         0.19600
C           6.03800         2.26500         2.63200
O           3.62200         2.03200         3.14500
C           6.88700         2.03100         1.57400
H           6.37300         2.65500         3.57800
H           7.95500         2.20300         1.53700
H           3.75900         2.15300         4.21300
H           3.93200         0.20500        -2.64200
H          -4.23000        -4.36000        -0.17000
H          -2.15000         4.41000         0.36000

D 8 9 24 25 F

