%mem=10GB 
%nprocshared=8 
# opt=modredundant b3lyp/6-311+g(d,p) 

 NDI_100.pdb

0  1
C          -2.56000        -2.99000        -0.41000
C          -2.26000        -1.55000        -0.22000
C          -3.30000        -0.61000        -0.08000
C          -4.65000        -1.02000        -0.12000
C          -4.99000        -2.46000        -0.30000
C          -0.95000        -1.14000        -0.22000
C          -2.96000         0.76000         0.10000
C          -1.60000         1.19000         0.12000
C          -0.56000         0.23000        -0.07000
C          -1.33000         2.62000         0.45000
C          -3.78000         3.12000         0.51000
C          -4.03000         1.68000         0.27000
C          -5.36000         1.25000         0.23000
C          -5.67000        -0.10000         0.04000
H          -6.70000        -0.44000         0.01000
H          -6.13000         2.00000         0.36000
H          -0.19000        -1.90000        -0.37000
N          -2.43000         3.48000         0.61000
N          -3.92000        -3.35000        -0.44000
O          -1.69000        -3.85000        -0.53000
O          -6.15000        -2.85000        -0.34000
O          -4.68000         3.94000         0.63000
O          -0.21000         3.10000         0.60000
C           0.88000         0.48000        -0.18000
C           1.88700         0.35700         0.75000
S           1.50700         1.18400        -1.66500
C           3.13900         0.82100         0.28800
H           1.73800        -0.05400         1.74000
C           3.12500         1.29200        -1.02800
O           4.31000         0.82600         0.99000
C           4.23600         1.79000        -1.79100
C           4.21800         2.28800        -3.09200
S           5.88600         1.83300        -1.17500
C           5.48900         2.69200        -3.58000
O           3.04100         2.33900        -3.76500
C           6.48200         2.50700        -2.64400
H           5.67300         3.10500        -4.55700
H           7.53600         2.73000        -2.75100
H           2.94300         2.95000        -4.65500
H           4.26700         0.22800         1.79800
H          -4.23000        -4.36000        -0.17000
H          -2.15000         4.41000         0.36000

D 8 9 24 25 F

