%mem=10GB 
%nprocshared=8 
# opt=modredundant b3lyp/6-311+g(d,p) 

 NDI_0.pdb

0  1
C          -2.56000        -2.99000        -0.41000
C          -2.26000        -1.55000        -0.22000
C          -3.30000        -0.61000        -0.08000
C          -4.65000        -1.02000        -0.12000
C          -4.99000        -2.46000        -0.30000
C          -0.95000        -1.14000        -0.22000
C          -2.96000         0.76000         0.10000
C          -1.60000         1.19000         0.12000
C          -0.56000         0.23000        -0.07000
C          -1.33000         2.62000         0.45000
C          -3.78000         3.12000         0.51000
C          -4.03000         1.68000         0.27000
C          -5.36000         1.25000         0.23000
C          -5.67000        -0.10000         0.04000
H          -6.70000        -0.44000         0.01000
H          -6.13000         2.00000         0.36000
H          -0.19000        -1.90000        -0.37000
N          -2.43000         3.48000         0.61000
N          -3.92000        -3.35000        -0.44000
O          -1.69000        -3.85000        -0.53000
O          -6.15000        -2.85000        -0.34000
O          -4.68000         3.94000         0.63000
O          -0.21000         3.10000         0.60000
C           0.88000         0.48000        -0.18000
C           1.59400         1.65500        -0.13300
S           1.94600        -0.86300        -0.57300
C           2.97000         1.48900        -0.40900
H           1.14900         2.61600         0.09400
C           3.34900         0.16600        -0.65300
O           3.91500         2.47400        -0.43600
C           4.67000        -0.32900        -0.92500
C           5.04600        -1.64300        -1.19800
S           6.10100         0.69800        -0.93600
C           6.43800        -1.82000        -1.41000
O           4.09400        -2.61000        -1.23200
C           7.12900        -0.63400        -1.30400
H           6.91400        -2.75900        -1.63700
H           8.19500        -0.48100        -1.41900
H           4.30100        -3.56900        -1.69100
H           3.59400         3.31600         0.01300
H          -4.23000        -4.36000        -0.17000
H          -2.15000         4.41000         0.36000

D 8 9 24 25 F

