%mem=10GB 
%nprocshared=8 
# opt=modredundant wb97xd/6-311+g(d,p) 

 pBTTT_-65.pdb

0  1
C          -4.25000        -1.36000        -0.21000
C          -2.93000        -0.95000        -0.61000
C          -1.97000        -2.05000        -0.62000
C          -4.33000        -2.76000         0.10000
H          -5.10000        -0.70000        -0.14000
S          -2.80000        -3.56000        -0.11000
H          -5.23000        -3.27000         0.41000
C          -0.56000        -2.13000        -0.97000
S           0.02100        -1.84000        -2.63800
C           1.67300        -2.10700        -2.19900
C           1.82900        -2.39000        -0.79500
C           0.58200        -2.38900        -0.09000
H           0.51500        -2.41900         0.98600
S           3.39700        -1.96100        -0.19700
C           3.89900        -1.40600        -1.79600
C           2.84300        -1.53100        -2.77600
H           4.82000        -0.86600        -1.95900
H           2.85800        -1.00300        -3.72500
O          -2.40000         0.49000        -0.72000
H          -2.92000         1.52000        -0.76000

D 2 3 8 9 F

