%mem=10GB 
%nprocshared=8 
# opt=modredundant wb97xd/6-311+g(d,p) 

 pBTTT_-95.pdb

0  1
C          -4.25000        -1.36000        -0.21000
C          -2.93000        -0.95000        -0.61000
C          -1.97000        -2.05000        -0.62000
C          -4.33000        -2.76000         0.10000
H          -5.10000        -0.70000        -0.14000
S          -2.80000        -3.56000        -0.11000
H          -5.23000        -3.27000         0.41000
C          -0.56000        -2.13000        -0.97000
S          -0.01500        -2.62400        -2.60200
C           1.65600        -2.45500        -2.18700
C           1.84200        -2.00000        -0.83200
C           0.60200        -1.79800        -0.14300
H           0.53600        -1.30800         0.81600
S           3.34000        -1.16000        -0.60900
C           3.77300        -1.40100        -2.30300
C           2.74600        -2.10500        -3.03700
H           4.61900        -0.90700        -2.76000
H           2.69700        -2.10700        -4.12200
O          -2.40000         0.49000        -0.72000
H          -2.92000         1.52000        -0.76000

D 2 3 8 9 F

