%mem=10GB 
%nprocshared=8 
# opt=modredundant wb97xd/6-311+g(d,p) 

 pBTTT_70.pdb

0  1
C          -4.25000        -1.36000        -0.21000
C          -2.93000        -0.95000        -0.61000
C          -1.97000        -2.05000        -0.62000
C          -4.33000        -2.76000         0.10000
H          -5.10000        -0.70000        -0.14000
S          -2.80000        -3.56000        -0.11000
H          -5.23000        -3.27000         0.41000
C          -0.56000        -2.13000        -0.97000
S           0.71200        -1.38000         0.04200
C           1.98000        -1.91500        -1.00700
C           1.48400        -2.68700        -2.11800
C           0.05800        -2.82900        -2.09900
H          -0.47400        -3.50400        -2.75100
S           2.66200        -3.79400        -2.74100
C           3.85300        -3.25400        -1.55600
C           3.32600        -2.24200        -0.67000
H           4.79300        -3.76700        -1.40600
H           3.79600        -1.98700         0.27700
O          -2.40000         0.49000        -0.72000
H          -2.92000         1.52000        -0.76000

D 2 3 8 9 F

