%mem=10GB 
%nprocshared=8 
# opt=modredundant wb97xd/6-311+g(d,p) 

 pBTTT_180.pdb

0  1
C          -4.25000        -1.36000        -0.21000
C          -2.93000        -0.95000        -0.61000
C          -1.97000        -2.05000        -0.62000
C          -4.33000        -2.76000         0.10000
H          -5.10000        -0.70000        -0.14000
S          -2.80000        -3.56000        -0.11000
H          -5.23000        -3.27000         0.41000
C          -0.56000        -2.13000        -0.97000
S           0.35500        -3.66500        -0.87300
C           1.81900        -2.92500        -1.42400
C           1.64900        -1.52500        -1.71700
C           0.31100        -1.07000        -1.48200
H          -0.04400        -0.10100        -1.79700
S           2.78700        -0.94500        -2.88800
C           3.53300        -2.54000        -3.01100
C           2.88200        -3.51700        -2.16800
H           4.26200        -2.78100        -3.77200
H           3.00700        -4.58700        -2.30500
O          -2.40000         0.49000        -0.72000
H          -2.92000         1.52000        -0.76000

D 2 3 8 9 F

