%mem=100GB 
%nprocshared=16 
# opt=modredundant b3lyp/6-311+g(d,p) scrf=(pcm, solvent=water) 

 NDI_-60.pdb

0  1
C          -2.56300        -2.99400        -0.40900
C          -2.25700        -1.55100        -0.22400
C          -3.30100        -0.60700        -0.08300
C          -4.65000        -1.02400        -0.11500
C          -4.99200        -2.45900        -0.30400
C          -0.94900        -1.13700        -0.21500
C          -2.96200         0.76400         0.10200
C          -1.59500         1.18800         0.12300
C          -0.56100         0.23200        -0.07200
C          -1.32800         2.61600         0.44600
C          -3.77700         3.11500         0.50800
C          -4.03500         1.67900         0.26800
C          -5.35600         1.25200         0.23000
C          -5.67200        -0.09800         0.03600
H          -6.69900        -0.44200         0.00800
H          -6.13300         1.99700         0.36100
H          -0.19000        -1.89500        -0.36900
N          -2.43200         3.47600         0.60800
N          -3.91600        -3.35300        -0.43800
O          -1.69500        -3.84700        -0.53200
O          -6.14900        -2.85000        -0.34000
O          -4.67600         3.93800         0.62900
O          -0.21200         3.09700         0.59600
C          -2.11100         4.87500         0.91200
H          -1.54000         4.93100         1.84000
H          -1.50000         5.29900         0.11100
H          -3.05000         5.41400         1.00300
C          -4.20600        -4.77900        -0.62500
H          -3.75900        -5.12600        -1.55900
H          -3.77500        -5.35500         0.19600
H          -5.28600        -4.89700        -0.64900
C           0.87600         0.48200        -0.17800
C           1.59700         1.24200        -1.07800
S           1.97300        -0.40100         0.88400
C           2.99300         1.12700        -0.92100
H           1.13000         1.86800        -1.82100
C           3.39000         0.27600         0.11500
O           3.94500         1.75200        -1.66400
C           4.72700        -0.01400         0.54900
C           3.50700         2.71900        -2.61400
C           5.12200        -0.88100         1.56600
S           6.15400         0.72200        -0.17700
H           4.41300         3.15400        -3.03800
H           2.92000         2.25200        -3.41400
H           2.91000         3.50400        -2.13500
C           6.53100        -0.95200         1.75800
O           4.17500        -1.55700         2.26700
C           7.20600        -0.14000         0.88700
H           7.01800        -1.57000         2.49900
C           4.61000        -2.46200         3.27600
H           8.27600        -0.00300         0.81100
H           5.16200        -1.93900         4.06800
H           3.70600        -2.90100         3.69700
H           5.23900        -3.25500         2.85500

D 8 9 32 33 F

