%mem=100GB 
%nprocshared=16 
# opt=modredundant b3lyp/6-311+g(d,p) scrf=(pcm, solvent=water) 

 NDI_40.pdb

0  1
C          -2.56300        -2.99400        -0.40900
C          -2.25700        -1.55100        -0.22400
C          -3.30100        -0.60700        -0.08300
C          -4.65000        -1.02400        -0.11500
C          -4.99200        -2.45900        -0.30400
C          -0.94900        -1.13700        -0.21500
C          -2.96200         0.76400         0.10200
C          -1.59500         1.18800         0.12300
C          -0.56100         0.23200        -0.07200
C          -1.32800         2.61600         0.44600
C          -3.77700         3.11500         0.50800
C          -4.03500         1.67900         0.26800
C          -5.35600         1.25200         0.23000
C          -5.67200        -0.09800         0.03600
H          -6.69900        -0.44200         0.00800
H          -6.13300         1.99700         0.36100
H          -0.19000        -1.89500        -0.36900
N          -2.43200         3.47600         0.60800
N          -3.91600        -3.35300        -0.43800
O          -1.69500        -3.84700        -0.53200
O          -6.14900        -2.85000        -0.34000
O          -4.67600         3.93800         0.62900
O          -0.21200         3.09700         0.59600
C          -2.11100         4.87500         0.91200
H          -1.54000         4.93100         1.84000
H          -1.50000         5.29900         0.11100
H          -3.05000         5.41400         1.00300
C          -4.20600        -4.77900        -0.62500
H          -3.75900        -5.12600        -1.55900
H          -3.77500        -5.35500         0.19600
H          -5.28600        -4.89700        -0.64900
C           0.87600         0.48200        -0.17800
C           1.69600         1.35100         0.51500
S           1.78100        -0.30000        -1.47400
C           3.01700         1.38800         0.02800
H           1.35200         1.93500         1.35400
C           3.25700         0.53900        -1.05700
O           4.03600         2.15100         0.50800
C           4.50000         0.32100        -1.74300
C           3.79500         2.89400         1.70000
C           4.73200        -0.50700        -2.83900
S           6.00500         1.11100        -1.28000
H           4.74500         3.36300         1.95700
H           3.03800         3.67100         1.53600
H           3.47300         2.23900         2.51800
C           6.08100        -0.50900        -3.29400
O           3.70100        -1.22100        -3.36200
C           6.87300         0.31900        -2.54400
H           6.44500        -1.08900        -4.13000
C           3.96100        -2.03100        -4.50300
H           7.93000         0.50900        -2.67000
H           4.69800        -2.81200        -4.27700
H           3.01100        -2.49600        -4.76500
H           4.31600        -1.42800        -5.34700

D 8 9 32 33 F

