%mem=10GB 
%nprocshared=8 
# opt=modredundant wb97xd/6-311+g(d,p) 

 pg2T_TT_175.pdb

0  1
C          -4.25000        -1.36000        -0.21000
C          -2.93000        -0.95000        -0.61000
C          -1.97000        -2.05000        -0.62000
C          -4.33000        -2.76000         0.10000
S          -2.80000        -3.56000        -0.11000
H          -5.23000        -3.27000         0.41000
C          -0.56000        -2.13000        -0.97000
S           0.38800        -3.63200        -0.74900
C           1.83300        -2.91100        -1.36800
C           1.63300        -1.54400        -1.77800
C           0.28600        -1.09900        -1.57500
H          -0.09100        -0.16800        -1.96900
S           2.75400        -1.04200        -3.00000
C           3.53200        -2.62600        -2.99300
C           2.90600        -3.54100        -2.06600
H           4.26300        -2.91500        -3.73500
H           3.05300        -4.61700        -2.11300
H          -2.89000         0.24000        -0.97000
O          -5.60000        -0.36000        -0.40000
H          -5.76000         0.85000        -0.75000

D 2 3 7 8 F

