%mem=10GB 
%nprocshared=8 
# opt=modredundant wb97xd/6-311+g(d,p) 

 pg2T_TT_25.pdb

0  1
C          -4.25000        -1.36000        -0.21000
C          -2.93000        -0.95000        -0.61000
C          -1.97000        -2.05000        -0.62000
C          -4.33000        -2.76000         0.10000
S          -2.80000        -3.56000        -0.11000
H          -5.23000        -3.27000         0.41000
C          -0.56000        -2.13000        -0.97000
S           0.52000        -0.70500        -0.88500
C           1.89500        -1.61100        -1.41600
C           1.58400        -3.00000        -1.64100
C           0.21000        -3.30700        -1.37700
H          -0.16800        -4.31700        -1.33200
S           2.96500        -4.03100        -1.46400
C           4.00100        -2.64800        -1.10100
C           3.26900        -1.40200        -1.09300
H           5.01400        -2.76200        -0.74400
H           3.65500        -0.49700        -0.63100
H          -2.89000         0.24000        -0.97000
O          -5.60000        -0.36000        -0.40000
H          -5.76000         0.85000        -0.75000

D 2 3 7 8 F

