%mem=10GB 
%nprocshared=8 
# opt=modredundant wb97xd/6-311+g(d,p) 

 pg2T_TT_30.pdb

0  1
C          -4.25000        -1.36000        -0.21000
C          -2.93000        -0.95000        -0.61000
C          -1.97000        -2.05000        -0.62000
C          -4.33000        -2.76000         0.10000
S          -2.80000        -3.56000        -0.11000
H          -5.23000        -3.27000         0.41000
C          -0.56000        -2.13000        -0.97000
S           0.54900        -0.74100        -0.76100
C           1.90800        -1.62700        -1.36100
C           1.57000        -2.98500        -1.70400
C           0.18800        -3.28500        -1.47200
H          -0.21100        -4.28600        -1.51400
S           2.92800        -4.05600        -1.60900
C           3.99000        -2.73100        -1.12700
C           3.28300        -1.47500        -1.01600
H           4.99900        -2.89600        -0.77600
H           3.68600        -0.62100        -0.47800
H          -2.89000         0.24000        -0.97000
O          -5.60000        -0.36000        -0.40000
H          -5.76000         0.85000        -0.75000

D 2 3 7 8 F

