%mem=10GB 
%nprocshared=8 
# opt=modredundant wb97xd/6-311+g(d,p) 

 pg2T_TT_0.pdb

0  1
C          -4.25000        -1.36000        -0.21000
C          -2.93000        -0.95000        -0.61000
C          -1.97000        -2.05000        -0.62000
C          -4.33000        -2.76000         0.10000
S          -2.80000        -3.56000        -0.11000
H          -5.23000        -3.27000         0.41000
C          -0.56000        -2.13000        -0.97000
S           0.36200        -0.69900        -1.52300
C           1.82500        -1.60500        -1.69900
C           1.66400        -2.98700        -1.32300
C           0.33100        -3.29000        -0.89500
H           0.06200        -4.22300        -0.42500
S           3.14700        -3.71500        -0.80300
C           4.03000        -2.21300        -1.08400
C           3.16900        -1.15000        -1.55200
H           5.05000        -2.07100        -0.75700
H           3.45700        -0.10300        -1.51800
H          -2.89000         0.24000        -0.97000
O          -5.60000        -0.36000        -0.40000
H          -5.76000         0.85000        -0.75000

D 2 3 7 8 F

