%mem=10GB 
%nprocshared=8 
# opt=modredundant wb97xd/6-311+g(d,p) 

 pg2T_TT_-45.pdb

0  1
C          -4.25000        -1.36000        -0.21000
C          -2.93000        -0.95000        -0.61000
C          -1.97000        -2.05000        -0.62000
C          -4.33000        -2.76000         0.10000
S          -2.80000        -3.56000        -0.11000
H          -5.23000        -3.27000         0.41000
C          -0.56000        -2.13000        -0.97000
S           0.09600        -1.35500        -2.44400
C           1.70700        -1.89200        -2.11100
C           1.79400        -2.63600        -0.88000
C           0.52800        -2.76200        -0.22100
H           0.42400        -3.14100         0.78400
S           3.37100        -2.56500        -0.16600
C           3.96700        -1.55800        -1.48800
C           2.93800        -1.26100        -2.45800
H           4.93300        -1.07500        -1.45700
H           3.02500        -0.45200        -3.17800
H          -2.89000         0.24000        -0.97000
O          -5.60000        -0.36000        -0.40000
H          -5.76000         0.85000        -0.75000

D 2 3 7 8 F

