%mem=10GB 
%nprocshared=8 
# opt=modredundant wb97xd/6-311+g(d,p) 

 NDI_130.pdb

0  1
C          -2.56000        -2.99000        -0.41000
C          -2.26000        -1.55000        -0.22000
C          -3.30000        -0.61000        -0.08000
C          -4.65000        -1.02000        -0.12000
C          -4.99000        -2.46000        -0.30000
C          -0.95000        -1.14000        -0.22000
C          -2.96000         0.76000         0.10000
C          -1.60000         1.19000         0.12000
C          -0.56000         0.23000        -0.07000
C          -1.33000         2.62000         0.45000
C          -3.78000         3.12000         0.51000
C          -4.03000         1.68000         0.27000
C          -5.36000         1.25000         0.23000
C          -5.67000        -0.10000         0.04000
H          -6.70000        -0.44000         0.01000
H          -6.13000         2.00000         0.36000
H          -0.19000        -1.90000        -0.37000
N          -2.43000         3.48000         0.61000
N          -3.92000        -3.35000        -0.44000
O          -1.69000        -3.85000        -0.53000
O          -6.15000        -2.85000        -0.34000
O          -4.68000         3.94000         0.63000
O          -0.21000         3.10000         0.60000
C           0.88000         0.48000        -0.18000
C           1.94500        -0.10000         0.47000
S           1.43400         1.81500        -1.18200
C           3.18400         0.51200         0.17700
H           1.84700        -0.94400         1.14100
C           3.09900         1.57000        -0.73100
O           4.40300         0.15200         0.67700
C           4.17800         2.36300        -1.25500
C           4.09200         3.43800        -2.13700
S           5.86800         2.07200        -0.85700
C           5.34400         4.01100        -2.48200
O           2.87200         3.83200        -2.58300
C           6.39100         3.37400        -1.85700
H           5.47800         4.84900        -3.14600
H           7.44600         3.60400        -1.94000
H           2.74400         4.80300        -3.04600
H           4.38500        -0.76600         1.08900
H          -4.23000        -4.36000        -0.17000
H          -2.15000         4.41000         0.36000

D 8 9 24 25 F

