%mem=10GB 
%nprocshared=8 
# opt=modredundant wb97xd/6-311+g(d,p) 

 NDI_150.pdb

0  1
C          -2.56000        -2.99000        -0.41000
C          -2.26000        -1.55000        -0.22000
C          -3.30000        -0.61000        -0.08000
C          -4.65000        -1.02000        -0.12000
C          -4.99000        -2.46000        -0.30000
C          -0.95000        -1.14000        -0.22000
C          -2.96000         0.76000         0.10000
C          -1.60000         1.19000         0.12000
C          -0.56000         0.23000        -0.07000
C          -1.33000         2.62000         0.45000
C          -3.78000         3.12000         0.51000
C          -4.03000         1.68000         0.27000
C          -5.36000         1.25000         0.23000
C          -5.67000        -0.10000         0.04000
H          -6.70000        -0.44000         0.01000
H          -6.13000         2.00000         0.36000
H          -0.19000        -1.90000        -0.37000
N          -2.43000         3.48000         0.61000
N          -3.92000        -3.35000        -0.44000
O          -1.69000        -3.85000        -0.53000
O          -6.15000        -2.85000        -0.34000
O          -4.68000         3.94000         0.63000
O          -0.21000         3.10000         0.60000
C           0.88000         0.48000        -0.18000
C           1.95700        -0.30200         0.17000
S           1.42700         2.06600        -0.70900
C           3.20000         0.35400         0.02200
H           1.86500        -1.32100         0.52400
C           3.10300         1.65800        -0.47200
O           4.43000        -0.17200         0.29400
C           4.18000         2.56400        -0.76600
C           4.08500         3.87400        -1.22900
S           5.87800         2.12900        -0.59500
C           5.33700         4.51000        -1.44100
O           2.85800         4.41400        -1.44000
C           6.39300         3.68400        -1.13200
H           5.46500         5.52000        -1.79200
H           7.44900         3.91200        -1.20000
H           2.74000         5.48700        -1.54200
H           4.40200        -1.17500         0.37500
H          -4.23000        -4.36000        -0.17000
H          -2.15000         4.41000         0.36000

D 8 9 24 25 F

