%mem=10GB 
%nprocshared=8 
# opt=modredundant wb97xd/6-311+g(d,p) 

 NDI_10.pdb

0  1
C          -2.56000        -2.99000        -0.41000
C          -2.26000        -1.55000        -0.22000
C          -3.30000        -0.61000        -0.08000
C          -4.65000        -1.02000        -0.12000
C          -4.99000        -2.46000        -0.30000
C          -0.95000        -1.14000        -0.22000
C          -2.96000         0.76000         0.10000
C          -1.60000         1.19000         0.12000
C          -0.56000         0.23000        -0.07000
C          -1.33000         2.62000         0.45000
C          -3.78000         3.12000         0.51000
C          -4.03000         1.68000         0.27000
C          -5.36000         1.25000         0.23000
C          -5.67000        -0.10000         0.04000
H          -6.70000        -0.44000         0.01000
H          -6.13000         2.00000         0.36000
H          -0.19000        -1.90000        -0.37000
N          -2.43000         3.48000         0.61000
N          -3.92000        -3.35000        -0.44000
O          -1.69000        -3.85000        -0.53000
O          -6.15000        -2.85000        -0.34000
O          -4.68000         3.94000         0.63000
O          -0.21000         3.10000         0.60000
C           0.88000         0.48000        -0.18000
C           1.61400         1.62200         0.04500
S           1.91300        -0.78700        -0.82800
C           2.97800         1.49100        -0.29800
H           1.19000         2.53500         0.44600
C           3.32900         0.22600        -0.77500
O           3.93700         2.45700        -0.18500
C           4.63400        -0.23000        -1.16800
C           4.98100        -1.48100        -1.67300
S           6.08000         0.76900        -1.04800
C           6.36500        -1.63400        -1.95500
O           4.01400        -2.41800        -1.84200
C           7.07700        -0.49100        -1.66900
H           6.81900        -2.52500        -2.35300
H           8.14100        -0.33200        -1.78900
H           4.19300        -3.28700        -2.46400
H           3.64300         3.21300         0.41000
H          -4.23000        -4.36000        -0.17000
H          -2.15000         4.41000         0.36000

D 8 9 24 25 F

