%mem=10GB 
%nprocshared=8 
# opt=modredundant wb97xd/6-311+g(d,p) 

 NDI_-110.pdb

0  1
C          -2.56000        -2.99000        -0.41000
C          -2.26000        -1.55000        -0.22000
C          -3.30000        -0.61000        -0.08000
C          -4.65000        -1.02000        -0.12000
C          -4.99000        -2.46000        -0.30000
C          -0.95000        -1.14000        -0.22000
C          -2.96000         0.76000         0.10000
C          -1.60000         1.19000         0.12000
C          -0.56000         0.23000        -0.07000
C          -1.33000         2.62000         0.45000
C          -3.78000         3.12000         0.51000
C          -4.03000         1.68000         0.27000
C          -5.36000         1.25000         0.23000
C          -5.67000        -0.10000         0.04000
H          -6.70000        -0.44000         0.01000
H          -6.13000         2.00000         0.36000
H          -0.19000        -1.90000        -0.37000
N          -2.43000         3.48000         0.61000
N          -3.92000        -3.35000        -0.44000
O          -1.69000        -3.85000        -0.53000
O          -6.15000        -2.85000        -0.34000
O          -4.68000         3.94000         0.63000
O          -0.21000         3.10000         0.60000
C           0.88000         0.48000        -0.18000
C           1.73000         0.37800        -1.25700
S           1.79100         0.84600         1.28000
C           3.08800         0.58400        -0.92400
H           1.39500         0.16100        -2.26400
C           3.30800         0.87600         0.42500
O           4.14800         0.54100        -1.78400
C           4.56200         1.17000         1.06300
C           4.78800         1.43100         2.41300
S           6.08700         1.27200         0.18800
C           6.14300         1.70400         2.73500
O           3.74000         1.41200         3.27500
C           6.95800         1.64500         1.62700
H           6.51100         1.92300         3.72300
H           8.02700         1.81000         1.58700
H           3.90800         1.34800         4.34300
H           3.85600         0.59800        -2.74500
H          -4.23000        -4.36000        -0.17000
H          -2.15000         4.41000         0.36000

D 8 9 24 25 F

