%mem=10GB 
%nprocshared=8 
# opt=modredundant wb97xd/6-311+g(d,p) 

 NDI_170.pdb

0  1
C          -2.56000        -2.99000        -0.41000
C          -2.26000        -1.55000        -0.22000
C          -3.30000        -0.61000        -0.08000
C          -4.65000        -1.02000        -0.12000
C          -4.99000        -2.46000        -0.30000
C          -0.95000        -1.14000        -0.22000
C          -2.96000         0.76000         0.10000
C          -1.60000         1.19000         0.12000
C          -0.56000         0.23000        -0.07000
C          -1.33000         2.62000         0.45000
C          -3.78000         3.12000         0.51000
C          -4.03000         1.68000         0.27000
C          -5.36000         1.25000         0.23000
C          -5.67000        -0.10000         0.04000
H          -6.70000        -0.44000         0.01000
H          -6.13000         2.00000         0.36000
H          -0.19000        -1.90000        -0.37000
N          -2.43000         3.48000         0.61000
N          -3.92000        -3.35000        -0.44000
O          -1.69000        -3.85000        -0.53000
O          -6.15000        -2.85000        -0.34000
O          -4.68000         3.94000         0.63000
O          -0.21000         3.10000         0.60000
C           0.88000         0.48000        -0.18000
C           1.94600        -0.39100        -0.18100
S           1.45400         2.14300        -0.18000
C           3.20100         0.25700        -0.17800
H           1.83700        -1.46800        -0.18400
C           3.12500         1.65200        -0.19900
O           4.42500        -0.34900        -0.17500
C           4.21600         2.58800        -0.23900
C           4.14300         3.97900        -0.23000
S           5.90500         2.09500        -0.33100
C           5.40400         4.62900        -0.29400
O           2.92700         4.57800        -0.17000
C           6.44500         3.73100        -0.34700
H           5.54900         5.69700        -0.29300
H           7.50300         3.95200        -0.40100
H           2.84200         5.62300         0.10200
H           4.36500        -1.32000        -0.43400
H          -4.23000        -4.36000        -0.17000
H          -2.15000         4.41000         0.36000

D 8 9 24 25 F

