%mem=10GB 
%nprocshared=8 
# opt=modredundant wb97xd/6-311+g(d,p) 

 NDI_140.pdb

0  1
C          -2.56000        -2.99000        -0.41000
C          -2.26000        -1.55000        -0.22000
C          -3.30000        -0.61000        -0.08000
C          -4.65000        -1.02000        -0.12000
C          -4.99000        -2.46000        -0.30000
C          -0.95000        -1.14000        -0.22000
C          -2.96000         0.76000         0.10000
C          -1.60000         1.19000         0.12000
C          -0.56000         0.23000        -0.07000
C          -1.33000         2.62000         0.45000
C          -3.78000         3.12000         0.51000
C          -4.03000         1.68000         0.27000
C          -5.36000         1.25000         0.23000
C          -5.67000        -0.10000         0.04000
H          -6.70000        -0.44000         0.01000
H          -6.13000         2.00000         0.36000
H          -0.19000        -1.90000        -0.37000
N          -2.43000         3.48000         0.61000
N          -3.92000        -3.35000        -0.44000
O          -1.69000        -3.85000        -0.53000
O          -6.15000        -2.85000        -0.34000
O          -4.68000         3.94000         0.63000
O          -0.21000         3.10000         0.60000
C           0.88000         0.48000        -0.18000
C           1.95400        -0.21400         0.32900
S           1.42600         1.96100        -0.95700
C           3.19400         0.42700         0.10700
H           1.86200        -1.15900         0.84900
C           3.09900         1.62500        -0.60500
O           4.42100        -0.02600         0.50000
C           4.17500         2.48500        -1.01900
C           4.08000         3.69500        -1.70200
S           5.87100         2.11200        -0.72800
C           5.33100         4.30500        -1.98300
O           2.85500         4.17200        -2.03700
C           6.38600         3.56000        -1.50800
H           5.45900         5.24300        -2.49800
H           7.44100         3.79000        -1.58300
H           2.72900         5.21000        -2.32300
H           4.40000        -1.00100         0.75000
H          -4.23000        -4.36000        -0.17000
H          -2.15000         4.41000         0.36000

D 8 9 24 25 F

