%mem=10GB 
%nprocshared=8 
# opt=modredundant wb97xd/6-311+g(d,p) 

 NDI_-160.pdb

0  1
C          -2.56000        -2.99000        -0.41000
C          -2.26000        -1.55000        -0.22000
C          -3.30000        -0.61000        -0.08000
C          -4.65000        -1.02000        -0.12000
C          -4.99000        -2.46000        -0.30000
C          -0.95000        -1.14000        -0.22000
C          -2.96000         0.76000         0.10000
C          -1.60000         1.19000         0.12000
C          -0.56000         0.23000        -0.07000
C          -1.33000         2.62000         0.45000
C          -3.78000         3.12000         0.51000
C          -4.03000         1.68000         0.27000
C          -5.36000         1.25000         0.23000
C          -5.67000        -0.10000         0.04000
H          -6.70000        -0.44000         0.01000
H          -6.13000         2.00000         0.36000
H          -0.19000        -1.90000        -0.37000
N          -2.43000         3.48000         0.61000
N          -3.92000        -3.35000        -0.44000
O          -1.69000        -3.85000        -0.53000
O          -6.15000        -2.85000        -0.34000
O          -4.68000         3.94000         0.63000
O          -0.21000         3.10000         0.60000
C           0.88000         0.48000        -0.18000
C           1.88900        -0.29300        -0.70900
S           1.55100         1.91800         0.57900
C           3.17700         0.25000        -0.50800
H           1.71500        -1.22700        -1.22800
C           3.18400         1.47600         0.16300
O           4.35900        -0.29700        -0.91900
C           4.32300         2.29300         0.48300
C           4.33400         3.49900         1.17900
S           5.96700         1.88400         0.00100
C           5.62300         4.07800         1.32200
O           3.16400         4.00900         1.64000
C           6.60100         3.30600         0.73700
H           5.83200         5.00300         1.83100
H           7.66400         3.50900         0.69800
H           3.16300         4.78600         2.39500
H           4.22200        -1.01300        -1.61300
H          -4.23000        -4.36000        -0.17000
H          -2.15000         4.41000         0.36000

D 8 9 24 25 F

