%mem=10GB 
%nprocshared=8 
# opt=modredundant wb97xd/6-311+g(d,p) 

 NDI_50.pdb

0  1
C          -2.56000        -2.99000        -0.41000
C          -2.26000        -1.55000        -0.22000
C          -3.30000        -0.61000        -0.08000
C          -4.65000        -1.02000        -0.12000
C          -4.99000        -2.46000        -0.30000
C          -0.95000        -1.14000        -0.22000
C          -2.96000         0.76000         0.10000
C          -1.60000         1.19000         0.12000
C          -0.56000         0.23000        -0.07000
C          -1.33000         2.62000         0.45000
C          -3.78000         3.12000         0.51000
C          -4.03000         1.68000         0.27000
C          -5.36000         1.25000         0.23000
C          -5.67000        -0.10000         0.04000
H          -6.70000        -0.44000         0.01000
H          -6.13000         2.00000         0.36000
H          -0.19000        -1.90000        -0.37000
N          -2.43000         3.48000         0.61000
N          -3.92000        -3.35000        -0.44000
O          -1.69000        -3.85000        -0.53000
O          -6.15000        -2.85000        -0.34000
O          -4.68000         3.94000         0.63000
O          -0.21000         3.10000         0.60000
C           0.88000         0.48000        -0.18000
C           1.72800         1.21400         0.61800
S           1.73400        -0.09700        -1.60500
C           3.03800         1.31800         0.09900
H           1.42500         1.66800         1.55200
C           3.23200         0.63900        -1.10700
O           4.08500         1.98400         0.67000
C           4.45100         0.52400        -1.86100
C           4.63800        -0.12600        -3.07900
S           5.98300         1.20700        -1.32400
C           5.97100        -0.07700        -3.56600
O           3.58100        -0.73400        -3.67400
C           6.80400         0.61800        -2.72000
H           6.30700        -0.51800        -4.49000
H           7.86200         0.80800        -2.84600
H           3.62600        -1.01200        -4.72000
H           3.91400         2.19200         1.64000
H          -4.23000        -4.36000        -0.17000
H          -2.15000         4.41000         0.36000

D 8 9 24 25 F

