%mem=10GB
%nprocshared=4
# opt=modredundant b3lyp/6-311+g(d,p)

 OBT_110.pdb

0  1
C          -0.69500         9.13200         1.34700
C          -1.48300         8.88300         0.28700
C          -2.89000         9.19300         0.53600
C          -3.09900         9.67000         1.80300
S          -1.60700         9.76900         2.77500
O          -1.01800         8.39500        -0.89100
H          -3.68900         9.07000        -0.18300
C           0.78300         8.92300         1.38200
C           1.44600         7.68800         1.38500
C           2.84700         7.80000         1.43000
C           3.29700         9.11000         1.47100
S           1.96200        10.13500         1.44200
O           0.78600         6.50500         1.35200
H           3.51700         6.95000         1.44100
C          -1.81500         8.14000        -1.98700
H          -2.30000         9.07900        -2.33200
H          -2.59200         7.38900        -1.72800
C           1.38800         5.26500         1.35500
H           2.00400         5.14100         2.27200
H           2.02300         5.14500         0.45200
C           4.70700         9.51900         1.53500
C           5.18600        10.82200         1.60700
C           6.58300        10.89200         1.66000
C           7.20500         9.65000         1.63000
S           6.02000         8.46300         1.54100
H           4.55000        11.69800         1.62200
H           7.12900        11.82400         1.71900
H          -4.07500         9.95600         2.17000
H           8.27100         9.47400         1.66000
H          -1.19000         7.73800        -2.80900
H           0.60300         4.48200         1.34700

D 5 1 8 9 F

