%mem=10GB
%nprocshared=4
# opt=modredundant b3lyp/6-311+g(d,p)

 OBT_10.pdb

0  1
C          -0.69500         9.13200         1.34700
C          -1.30100        10.31600         1.15900
C          -2.76000        10.22200         1.18500
C          -3.19200         8.93900         1.39500
S          -1.86100         7.76500         1.56900
O          -0.62700        11.47800         0.96600
H          -3.43800        11.05600         1.05900
C           0.78300         8.92300         1.38200
C           1.44600         7.68800         1.38500
C           2.84700         7.80000         1.43000
C           3.29700         9.11000         1.47100
S           1.96200        10.13500         1.44200
O           0.78600         6.50500         1.35200
H           3.51700         6.95000         1.44100
C          -1.23700        12.70000         0.77700
H          -1.84600        12.96400         1.66800
H          -1.88400        12.66900        -0.12600
C           1.38800         5.26500         1.35500
H           2.00400         5.14100         2.27200
H           2.02300         5.14500         0.45200
C           4.70700         9.51900         1.53500
C           5.18600        10.82200         1.60700
C           6.58300        10.89200         1.66000
C           7.20500         9.65000         1.63000
S           6.02000         8.46300         1.54100
H           4.55000        11.69800         1.62200
H           7.12900        11.82400         1.71900
H          -4.23900         8.67200         1.44800
H           8.27100         9.47400         1.66000
H          -0.46100        13.47900         0.63100
H           0.60300         4.48200         1.34700

D 5 1 8 9 F

