%mem=100GB 
%nprocshared=8 
# opt=modredundant wb97xd/6-311+g(d,p) 

 pBTTT_-165.pdb

0  1
C          -4.25000        -1.36000        -0.21000
C          -2.93000        -0.95000        -0.61000
C          -1.97000        -2.05000        -0.62000
C          -2.66000         0.47000        -0.96000
C          -4.33000        -2.76000         0.10000
H          -5.10000        -0.70000        -0.14000
S          -2.80000        -3.56000        -0.11000
H          -5.23000        -3.27000         0.41000
C          -0.56000        -2.13000        -0.97000
S           0.25800        -3.69600        -1.25600
C           1.77600        -2.93700        -1.59400
C           1.69800        -1.50000        -1.52700
C           0.38500        -1.03400        -1.19400
H           0.09600         0.00400        -1.25800
S           2.89400        -0.71900        -2.50700
C           3.54500        -2.27700        -3.02300
C           2.81700        -3.39000        -2.45600
H           4.27400        -2.36600        -3.81600
H           2.88100        -4.39800        -2.85700
H          -3.55000         1.09000        -0.83000
H          -2.35000         0.56000        -2.00000
H          -1.88000         0.89000        -0.31000

D 2 3 9 10 F

