%mem=100GB 
%nprocshared=8 
# opt=modredundant wb97xd/6-311+g(d,p) 

 pBTTT_-135.pdb

0  1
C          -4.25000        -1.36000        -0.21000
C          -2.93000        -0.95000        -0.61000
C          -1.97000        -2.05000        -0.62000
C          -2.66000         0.47000        -0.96000
C          -4.33000        -2.76000         0.10000
H          -5.10000        -0.70000        -0.14000
S          -2.80000        -3.56000        -0.11000
H          -5.23000        -3.27000         0.41000
C          -0.56000        -2.13000        -0.97000
S           0.09100        -3.45300        -1.98500
C           1.70200        -2.82600        -1.91600
C           1.78300        -1.60300        -1.15900
C           0.51400        -1.19200        -0.63600
H           0.34900        -0.22600        -0.18600
S           3.11600        -0.60600        -1.64000
C           3.61500        -1.78900        -2.85100
C           2.73400        -2.93400        -2.89400
H           4.37500        -1.57700        -3.58900
H           2.70700        -3.62300        -3.73500
H          -3.55000         1.09000        -0.83000
H          -2.35000         0.56000        -2.00000
H          -1.88000         0.89000        -0.31000

D 2 3 9 10 F

