%mem=100GB 
%nprocshared=8 
# opt=modredundant wb97xd/6-311+g(d,p) 

 pBTTT_-40.pdb

0  1
C          -4.25000        -1.36000        -0.21000
C          -2.93000        -0.95000        -0.61000
C          -1.97000        -2.05000        -0.62000
C          -2.66000         0.47000        -0.96000
C          -4.33000        -2.76000         0.10000
H          -5.10000        -0.70000        -0.14000
S          -2.80000        -3.56000        -0.11000
H          -5.23000        -3.27000         0.41000
C          -0.56000        -2.13000        -0.97000
S           0.12100        -1.24800        -2.37100
C           1.71800        -1.84500        -2.07800
C           1.78200        -2.69200        -0.91400
C           0.51000        -2.84600        -0.27300
H           0.39300        -3.30600         0.69600
S           3.35600        -2.71400        -0.19100
C           3.98000        -1.61200        -1.42000
C           2.96300        -1.21300        -2.36600
H           4.95600        -1.15400        -1.34500
H           3.07200        -0.34800        -3.01400
H          -3.55000         1.09000        -0.83000
H          -2.35000         0.56000        -2.00000
H          -1.88000         0.89000        -0.31000

D 2 3 9 10 F

