%mem=100GB 
%nprocshared=8 
# opt=modredundant wb97xd/6-311+g(d,p) 

 pBTTT_-110.pdb

0  1
C          -4.25000        -1.36000        -0.21000
C          -2.93000        -0.95000        -0.61000
C          -1.97000        -2.05000        -0.62000
C          -2.66000         0.47000        -0.96000
C          -4.33000        -2.76000         0.10000
H          -5.10000        -0.70000        -0.14000
S          -2.80000        -3.56000        -0.11000
H          -5.23000        -3.27000         0.41000
C          -0.56000        -2.13000        -0.97000
S           0.00600        -2.98400        -2.43800
C           1.66500        -2.61600        -2.11500
C           1.82900        -1.82500        -0.92200
C           0.58400        -1.53100        -0.27900
H           0.49200        -0.82100         0.52800
S           3.27300        -0.86700        -0.95000
C           3.70900        -1.49800        -2.53900
C           2.72500        -2.42500        -3.05000
H           4.51900        -1.08500        -3.12400
H           2.66900        -2.70300        -4.09900
H          -3.55000         1.09000        -0.83000
H          -2.35000         0.56000        -2.00000
H          -1.88000         0.89000        -0.31000

D 2 3 9 10 F

