%mem=100GB 
%nprocshared=8 
# opt=modredundant wb97xd/6-311+g(d,p) 

 pBTTT_105.pdb

0  1
C          -4.25000        -1.36000        -0.21000
C          -2.93000        -0.95000        -0.61000
C          -1.97000        -2.05000        -0.62000
C          -2.66000         0.47000        -0.96000
C          -4.33000        -2.76000         0.10000
H          -5.10000        -0.70000        -0.14000
S          -2.80000        -3.56000        -0.11000
H          -5.23000        -3.27000         0.41000
C          -0.56000        -2.13000        -0.97000
S           0.72000        -2.26300         0.27500
C           1.98200        -2.30800        -0.90800
C           1.47400        -2.25300        -2.25500
C           0.04500        -2.17000        -2.30300
H          -0.52000        -2.28300        -3.21500
S           2.54300        -2.98900        -3.40200
C           3.70400        -3.37900        -2.13100
C           3.24700        -2.96100        -0.82500
H           4.55600        -4.02100        -2.30200
H           3.67400        -3.34600         0.09700
H          -3.55000         1.09000        -0.83000
H          -2.35000         0.56000        -2.00000
H          -1.88000         0.89000        -0.31000

D 2 3 9 10 F

