%mem=100GB 
%nprocshared=8 
# opt=modredundant wb97xd/6-311+g(d,p) 

 pBTTT_135.pdb

0  1
C          -4.25000        -1.36000        -0.21000
C          -2.93000        -0.95000        -0.61000
C          -1.97000        -2.05000        -0.62000
C          -2.66000         0.47000        -0.96000
C          -4.33000        -2.76000         0.10000
H          -5.10000        -0.70000        -0.14000
S          -2.80000        -3.56000        -0.11000
H          -5.23000        -3.27000         0.41000
C          -0.56000        -2.13000        -0.97000
S           0.62100        -3.00900         0.04800
C           1.93800        -2.63800        -1.01200
C           1.51900        -1.87500        -2.16000
C           0.11400        -1.59800        -2.15600
H          -0.40600        -1.18400        -3.00700
S           2.56400        -2.09500        -3.52500
C           3.59600        -3.19500        -2.60700
C           3.11300        -3.40600        -1.26200
H           4.37900        -3.77700        -3.07200
H           3.43900        -4.23800        -0.64400
H          -3.55000         1.09000        -0.83000
H          -2.35000         0.56000        -2.00000
H          -1.88000         0.89000        -0.31000

D 2 3 9 10 F

