%mem=100GB 
%nprocshared=8 
# opt=modredundant wb97xd/6-311+g(d,p) 

 pBTTT_-100.pdb

0  1
C          -4.25000        -1.36000        -0.21000
C          -2.93000        -0.95000        -0.61000
C          -1.97000        -2.05000        -0.62000
C          -2.66000         0.47000        -0.96000
C          -4.33000        -2.76000         0.10000
H          -5.10000        -0.70000        -0.14000
S          -2.80000        -3.56000        -0.11000
H          -5.23000        -3.27000         0.41000
C          -0.56000        -2.13000        -0.97000
S          -0.01100        -2.74900        -2.55700
C           1.65800        -2.51000        -2.16700
C           1.83900        -1.93900        -0.85700
C           0.59800        -1.70500        -0.18100
H           0.52500        -1.13700         0.73400
S           3.32000        -1.05200        -0.71400
C           3.75100        -1.42600        -2.38500
C           2.73700        -2.21100        -3.05000
H           4.58500        -0.95500        -2.88700
H           2.68300        -2.30600        -4.13200
H          -3.55000         1.09000        -0.83000
H          -2.35000         0.56000        -2.00000
H          -1.88000         0.89000        -0.31000

D 2 3 9 10 F

