%mem=100GB 
%nprocshared=8 
# opt=modredundant wb97xd/6-311+g(d,p) 

 pBTTT_55.pdb

0  1
C          -4.25000        -1.36000        -0.21000
C          -2.93000        -0.95000        -0.61000
C          -1.97000        -2.05000        -0.62000
C          -2.66000         0.47000        -0.96000
C          -4.33000        -2.76000         0.10000
H          -5.10000        -0.70000        -0.14000
S          -2.80000        -3.56000        -0.11000
H          -5.23000        -3.27000         0.41000
C          -0.56000        -2.13000        -0.97000
S           0.66800        -1.07400        -0.20700
C           1.96000        -1.77800        -1.11600
C           1.50800        -2.83300        -1.98700
C           0.09500        -3.05200        -1.90100
H          -0.39700        -3.90000        -2.35200
S           2.75100        -3.98800        -2.33900
C           3.91300        -3.09600        -1.35400
C           3.32700        -1.92800        -0.73800
H           4.88400        -3.49700        -1.10100
H           3.78500        -1.41600         0.10400
H          -3.55000         1.09000        -0.83000
H          -2.35000         0.56000        -2.00000
H          -1.88000         0.89000        -0.31000

D 2 3 9 10 F

