%mem=100GB 
%nprocshared=8 
# opt=modredundant mp2/aug-cc-pvdz 

 pBTTT_-145.pdb

0  1
C           3.93300         0.83800         0.14300
C           2.52600         1.10600         0.25200
C           1.74100         0.04100        -0.04700
C           4.18300        -0.43200        -0.23600
H           4.69900         1.57100         0.34400
S           2.73500        -1.32900        -0.48900
H           5.14400        -0.89200        -0.39000
C           0.27900        -0.03500        -0.02600
S          -0.52900        -1.52400         0.45900
C          -2.08500        -0.78900         0.22200
C          -1.95700         0.50800        -0.17900
C          -0.60200         0.94800        -0.32800
H          -0.30400         1.93200        -0.64400
S          -3.51200         1.24600        -0.41100
C          -4.30600        -0.23900         0.04600
C          -3.44300        -1.23000         0.35400
H          -5.38200        -0.28600         0.05900
H          -3.74700        -2.21800         0.65900
O           2.02200         2.30900         0.60800
H           2.69800         2.86100         0.96300

D 2 3 8 9 F

