%mem=100GB 
%nprocshared=8 
# opt=modredundant mp2/aug-cc-pvdz 

 pBTTT_0.pdb

0  1
C          -4.02800         0.36700         0.00000
C          -2.67600         0.85400         0.00000
C          -1.73500        -0.12300        -0.00000
C          -4.08400        -0.97900        -0.00000
H          -4.89500         1.01000         0.00000
S          -2.51500        -1.69200        -0.00000
H          -4.96400        -1.59900         0.00000
C          -0.27600        -0.01300        -0.00000
S           0.53800         1.55100        -0.00000
C           2.09000         0.77300        -0.00000
C           1.96300        -0.58400         0.00000
C           0.60900        -1.04200         0.00000
H           0.32000        -2.08000         0.00000
S           3.51900        -1.35900         0.00000
C           4.31200         0.19600        -0.00000
C           3.44900         1.23300        -0.00000
H           5.38800         0.24400        -0.00000
H           3.75300         2.26700        -0.00000
O          -2.36000         2.16700         0.00000
H          -3.13400         2.70300         0.00000

D 2 3 8 9 F

