%mem=100GB 
%nprocshared=8 
# opt=modredundant mp2/aug-cc-pvdz 

 pBTTT_-120.pdb

0  1
C           3.93800         0.77300         0.23800
C           2.53300         1.01700         0.41500
C           1.74300         0.03800        -0.08700
C           4.17700        -0.39700        -0.38800
H           4.71100         1.44900         0.57200
S           2.72400        -1.22600        -0.79400
H           5.13500        -0.81800        -0.64200
C           0.27700        -0.04200        -0.05300
S          -0.52700        -1.38900         0.74500
C          -2.08300        -0.71700         0.36900
C          -1.95800         0.46400        -0.30300
C          -0.60300         0.85500        -0.55300
H          -0.30100         1.74800        -1.07300
S          -3.51500         1.13800        -0.67900
C          -4.30600        -0.21200         0.09300
C          -3.44200        -1.11600         0.60100
H          -5.38100        -0.25200         0.12300
H          -3.74500        -2.01500         1.11300
O           2.03600         2.11800         1.01800
H           2.72500         2.61700         1.42400

D 2 3 8 9 F

