%mem=100GB 
%nprocshared=8 
# opt=modredundant mp2/aug-cc-pvdz 

 pBTTT_90.pdb

0  1
C          -3.97100         0.67600        -0.10800
C          -2.58000         1.02300         0.01200
C          -1.74500        -0.03600        -0.09600
C          -4.14900        -0.64700        -0.30100
H          -4.77600         1.39400        -0.05300
S          -2.65800        -1.50600        -0.34500
H          -5.08500        -1.16700        -0.42500
C          -0.27400        -0.03900        -0.01400
S           0.53200        -0.26000         1.53300
C           2.08700        -0.14400         0.77000
C           1.96000         0.04800        -0.57500
C           0.60300         0.10700        -1.03100
H           0.29800         0.25300        -2.05400
S           3.51600         0.16600        -1.34000
C           4.30800        -0.05100         0.19800
C           3.44700        -0.20300         1.22600
H           5.38400        -0.05300         0.24700
H           3.75200        -0.34800         2.24900
O          -2.13500         2.28100         0.21000
H          -2.85500         2.88100         0.30600

D 2 3 8 9 F

