%mem=100GB 
%nprocshared=8 
# opt=modredundant mp2/aug-cc-pvdz 

 pBTTT_35.pdb

0  1
C          -4.02400         0.34300        -0.21600
C          -2.67400         0.82600        -0.30400
C          -1.73700        -0.10900        -0.01000
C          -4.08000        -0.95400         0.14700
H          -4.89200         0.95200        -0.42200
S          -2.51300        -1.62100         0.40400
H          -4.96000        -1.55800         0.28400
C          -0.27600        -0.00100        -0.02200
S           0.53800         1.48900         0.44000
C           2.09000         0.73800         0.23500
C           1.96000        -0.56100        -0.15800
C           0.60500        -0.99300        -0.30900
H           0.30600        -1.98000        -0.62000
S           3.51400        -1.30500        -0.38400
C           4.31100         0.18200         0.06300
C           3.45000         1.17700         0.36200
H           5.38600         0.22500         0.07900
H           3.75600         2.16700         0.65900
O          -2.35600         2.09000        -0.65600
H          -3.13000         2.59900        -0.82400

D 2 3 8 9 F

