%mem=100GB 
%nprocshared=8 
# opt=modredundant mp2/aug-cc-pvdz 

 pBTTT_-115.pdb

0  1
C           3.94200         0.75400         0.25200
C           2.53700         0.99200         0.44700
C           1.74400         0.03700        -0.09100
C           4.17500        -0.39000        -0.42400
H           4.71800         1.41400         0.61000
S           2.71800        -1.20000        -0.85500
H           5.13100        -0.80000        -0.70100
C           0.27700        -0.04100        -0.05300
S          -0.52800        -1.35100         0.80600
C          -2.08400        -0.69600         0.40000
C          -1.95900         0.45100        -0.32800
C          -0.60300         0.83000        -0.59500
H          -0.30100         1.69800        -1.15600
S          -3.51500         1.10700        -0.73500
C          -4.30600        -0.20400         0.10000
C          -3.44300        -1.08300         0.65000
H          -5.38200        -0.24200         0.13300
H          -3.74600        -1.95600         1.20500
O           2.04600         2.06600         1.10100
H           2.74000         2.55900         1.50500

D 2 3 8 9 F

