%mem=100GB 
%nprocshared=8 
# opt=modredundant mp2/aug-cc-pvdz 

 pBTTT_-100.pdb

0  1
C           3.95700         0.68200         0.27600
C           2.55900         0.90800         0.52900
C           1.74500         0.02800        -0.09700
C           4.16200        -0.37500        -0.53500
H           4.74800         1.29100         0.68900
S           2.68800        -1.12000        -1.02000
H           5.10800        -0.75800        -0.88100
C           0.27500        -0.03500        -0.04300
S          -0.53100        -1.19600         1.00500
C          -2.08600        -0.61400         0.49800
C          -1.96000         0.40100        -0.40500
C          -0.60300         0.73500        -0.72300
H          -0.29800         1.50400        -1.41300
S          -3.51500         0.98500        -0.91300
C          -4.30800        -0.17500         0.12200
C          -3.44600        -0.95300         0.80800
H          -5.38300        -0.20600         0.15800
H          -3.75000        -1.72500         1.49600
O           2.09100         1.90100         1.31300
H           2.80000         2.37200         1.71800

D 2 3 8 9 F

