%mem=100GB 
%nprocshared=8 
# opt=modredundant mp2/aug-cc-pvdz 

 pBTTT_-55.pdb

0  1
C          -4.01200         0.33900         0.34700
C          -2.65200         0.78300         0.48700
C          -1.74000        -0.10000         0.01700
C          -4.09500        -0.87900        -0.22600
H          -4.86600         0.91500         0.67300
S          -2.54500        -1.51400        -0.62300
H          -4.98900        -1.43900        -0.44100
C          -0.27400        -0.00400         0.01200
S           0.53700         1.37600        -0.71400
C           2.08900         0.68200        -0.36700
C           1.96000        -0.52900         0.24900
C           0.60200        -0.92900         0.46900
H           0.29800        -1.84600         0.94800
S           3.51300        -1.21900         0.60700
C           4.31000         0.16500        -0.09400
C           3.45000         1.09200        -0.56600
H           5.38600         0.20600        -0.11400
H           3.75700         2.01400        -1.03300
O          -2.30300         1.96100         1.04500
H          -3.06500         2.45100         1.30400

D 2 3 8 9 F

