%mem=100GB 
%nprocshared=8 
# opt=modredundant mp2/aug-cc-pvdz 

 pBTTT_-50.pdb

0  1
C          -4.01600         0.33900         0.31400
C          -2.66000         0.79600         0.44100
C          -1.73900        -0.10200         0.01500
C          -4.08900        -0.90300        -0.20700
H          -4.87500         0.92300         0.61000
S          -2.53400        -1.54600        -0.57000
H          -4.97900        -1.47800        -0.40300
C          -0.27500        -0.00200         0.01500
S           0.53700         1.41100        -0.64500
C           2.08900         0.69800        -0.33400
C           1.96000        -0.53800         0.22600
C           0.60200        -0.94800         0.42900
H           0.29900        -1.88500         0.86600
S           3.51300        -1.24500         0.55200
C           4.31000         0.17000        -0.08500
C           3.45000         1.11700        -0.51400
H           5.38600         0.21100        -0.10400
H           3.75700         2.06000        -0.93800
O          -2.32100         2.00000         0.94900
H          -3.08700         2.49400         1.18700

D 2 3 8 9 F

