%mem=100GB 
%nprocshared=8 
# opt=modredundant mp2/aug-cc-pvdz 

 pBTTT_-25.pdb

0  1
C          -4.02700         0.35100         0.15300
C          -2.67700         0.83900         0.21600
C          -1.73600        -0.11500         0.00900
C          -4.08000        -0.97000        -0.10500
H          -4.89500         0.97600         0.30000
S          -2.51000        -1.65600        -0.29000
H          -4.95900        -1.58300        -0.20400
C          -0.27600        -0.00500         0.02200
S           0.53700         1.52100        -0.30800
C           2.08900         0.75600        -0.17000
C           1.96200        -0.57200         0.11200
C           0.60700        -1.01600         0.22500
H           0.31200        -2.02800         0.45000
S           3.51600        -1.33200         0.27300
C           4.31100         0.18900        -0.04800
C           3.44900         1.20500        -0.26100
H           5.38700         0.23400        -0.06200
H           3.75400         2.21600        -0.47400
O          -2.36200         2.12900         0.46400
H          -3.13800         2.65100         0.57700

D 2 3 8 9 F

