%mem=100GB 
%nprocshared=8 
# opt=modredundant mp2/aug-cc-pvdz 

 pBTTT_-45.pdb

0  1
C          -4.01900         0.33900         0.28100
C          -2.66600         0.80700         0.39500
C          -1.73800        -0.10400         0.01300
C          -4.08500        -0.92400        -0.18700
H          -4.88200         0.93100         0.54700
S          -2.52400        -1.57400        -0.51500
H          -4.97000        -1.51100        -0.36400
C          -0.27500        -0.00100         0.01800
S           0.53800         1.44100        -0.57700
C           2.09000         0.71300        -0.30100
C           1.96000        -0.54700         0.20300
C           0.60300        -0.96400         0.38900
H           0.30100        -1.92000         0.78400
S           3.51300        -1.26800         0.49600
C           4.31000         0.17400        -0.07700
C           3.45000         1.14000        -0.46300
H           5.38600         0.21600        -0.09500
H           3.75700         2.10000        -0.84400
O          -2.33600         2.03400         0.85200
H          -3.10600         2.53200         1.06800

D 2 3 8 9 F

