%mem=100GB 
%nprocshared=8 
# opt=modredundant mp2/aug-cc-pvdz 

 pBTTT_-90.pdb

0  1
C           3.97100         0.67500        -0.11400
C           2.58000         1.02300         0.00300
C           1.74500        -0.03700        -0.09500
C           4.14900        -0.65000        -0.29500
H           4.77600         1.39300        -0.06500
S           2.65800        -1.50900        -0.33200
H           5.08500        -1.17000        -0.41400
C           0.27400        -0.03900        -0.01400
S          -0.53200        -0.24600         1.53600
C          -2.08700        -0.13700         0.77200
C          -1.96000         0.04300        -0.57500
C          -0.60300         0.09700        -1.03200
H          -0.29800         0.23300        -2.05700
S          -3.51600         0.15300        -1.34200
C          -4.30800        -0.04900         0.19900
C          -3.44700        -0.19100         1.22700
H          -5.38400        -0.05100         0.24700
H          -3.75200        -0.32700         2.25200
O           2.13500         2.28200         0.18900
H           2.85500         2.88300         0.28100

D 2 3 8 9 F

