%mem=10GB 
%nprocshared=8 
# opt=modredundant b3lyp/6-311+g(d,p) 

 pBTTT_-25.pdb

0  1
C          -4.25000        -1.36000        -0.21000
C          -2.93000        -0.95000        -0.61000
C          -1.97000        -2.05000        -0.62000
C          -4.33000        -2.76000         0.10000
H          -5.10000        -0.70000        -0.14000
S          -2.80000        -3.56000        -0.11000
H          -5.23000        -3.27000         0.41000
C          -0.56000        -2.13000        -0.97000
S           0.20400        -0.97000        -2.10000
C           1.75500        -1.72300        -1.95600
C           1.74200        -2.83700        -1.04200
C           0.44900        -3.06500        -0.46800
H           0.28300        -3.74400         0.35300
S           3.29500        -3.14000        -0.33800
C           4.01200        -1.80800        -1.24700
C           3.04200        -1.12000        -2.06900
H           5.01200        -1.44700        -1.05300
H           3.21700        -0.12900        -2.47800
O          -2.40000         0.49000        -0.72000
H          -2.92000         1.52000        -0.76000

D 2 3 8 9 F

