%mem=10GB 
%nprocshared=8 
# opt=modredundant b3lyp/6-311+g(d,p) 

 pBTTT_100.pdb

0  1
C          -4.25000        -1.36000        -0.21000
C          -2.93000        -0.95000        -0.61000
C          -1.97000        -2.05000        -0.62000
C          -4.33000        -2.76000         0.10000
H          -5.10000        -0.70000        -0.14000
S          -2.80000        -3.56000        -0.11000
H          -5.23000        -3.27000         0.41000
C          -0.56000        -2.13000        -0.97000
S           0.72700        -2.13100         0.27400
C           1.98500        -2.24900        -0.90700
C           1.47100        -2.31900        -2.25200
C           0.04000        -2.27000        -2.29800
H          -0.52600        -2.47200        -3.19500
S           2.55100        -3.12700        -3.33900
C           3.72500        -3.38300        -2.04500
C           3.26400        -2.86700        -0.77700
H           4.59000        -4.02000        -2.16600
H           3.70300        -3.16300         0.17200
O          -2.40000         0.49000        -0.72000
H          -2.92000         1.52000        -0.76000

D 2 3 8 9 F

