%mem=100GB 
%nprocshared=8 
# opt=modredundant hf/aug-cc-pvdz 

 pg2T_TT_10.pdb

0  1
C          -4.25000        -1.36000        -0.21000
C          -2.93000        -0.95000        -0.61000
C          -1.97000        -2.05000        -0.62000
C          -4.33000        -2.76000         0.10000
S          -2.80000        -3.56000        -0.11000
H          -5.23000        -3.27000         0.41000
C          -0.56000        -2.13000        -0.97000
S           0.42700        -0.66700        -1.26800
C           1.85400        -1.59200        -1.58600
C           1.63100        -3.00900        -1.44900
C           0.28100        -3.32300        -1.08600
H          -0.03100        -4.31000        -0.78200
S           3.07700        -3.87700        -1.05100
C           4.02400        -2.38800        -1.06900
C           3.21300        -1.22600        -1.35600
H           5.04500        -2.34700        -0.71700
H           3.54400        -0.21300        -1.14400
H          -2.89000         0.24000        -0.97000
O          -5.60000        -0.36000        -0.40000
H          -5.76000         0.85000        -0.75000

D 2 3 7 8 F

