%mem=100GB 
%nprocshared=8 
# opt=modredundant hf/aug-cc-pvdz 

 pg2T_TT_160.pdb

0  1
C          -4.25000        -1.36000        -0.21000
C          -2.93000        -0.95000        -0.61000
C          -1.97000        -2.05000        -0.62000
C          -4.33000        -2.76000         0.10000
S          -2.80000        -3.56000        -0.11000
H          -5.23000        -3.27000         0.41000
C          -0.56000        -2.13000        -0.97000
S           0.48400        -3.46900        -0.40100
C           1.87600        -2.84000        -1.21300
C           1.58600        -1.63500        -1.94700
C           0.21500        -1.23500        -1.83200
H          -0.22300        -0.45700        -2.43800
S           2.66400        -1.38900        -3.28100
C           3.54300        -2.87000        -2.89400
C           2.98200        -3.55900        -1.75500
H           4.28600        -3.29200        -3.55600
H           3.19800        -4.60100        -1.53400
H          -2.89000         0.24000        -0.97000
O          -5.60000        -0.36000        -0.40000
H          -5.76000         0.85000        -0.75000

D 2 3 7 8 F

