%mem=100GB 
%nprocshared=8 
# opt=modredundant hf/aug-cc-pvdz 

 pg2T_TT_-70.pdb

0  1
C          -4.25000        -1.36000        -0.21000
C          -2.93000        -0.95000        -0.61000
C          -1.97000        -2.05000        -0.62000
C          -4.33000        -2.76000         0.10000
S          -2.80000        -3.56000        -0.11000
H          -5.23000        -3.27000         0.41000
C          -0.56000        -2.13000        -0.97000
S           0.00800        -1.97000        -2.66000
C           1.66700        -2.16400        -2.21000
C           1.83400        -2.32500        -0.78800
C           0.59000        -2.29000        -0.07800
H           0.52900        -2.23000         0.99800
S           3.39600        -1.81400        -0.23700
C           3.87900        -1.38600        -1.88000
C           2.82300        -1.61600        -2.83900
H           4.78800        -0.84300        -2.09300
H           2.82300        -1.16900        -3.83000
H          -2.89000         0.24000        -0.97000
O          -5.60000        -0.36000        -0.40000
H          -5.76000         0.85000        -0.75000

D 2 3 7 8 F

