%mem=100GB 
%nprocshared=8 
# opt=modredundant hf/aug-cc-pvdz 

 pg2T_TT_-25.pdb

0  1
C          -4.25000        -1.36000        -0.21000
C          -2.93000        -0.95000        -0.61000
C          -1.97000        -2.05000        -0.62000
C          -4.33000        -2.76000         0.10000
S          -2.80000        -3.56000        -0.11000
H          -5.23000        -3.27000         0.41000
C          -0.56000        -2.13000        -0.97000
S           0.20400        -0.97000        -2.10000
C           1.75500        -1.72300        -1.95600
C           1.74200        -2.83700        -1.04200
C           0.44900        -3.06500        -0.46800
H           0.28300        -3.74400         0.35300
S           3.29500        -3.14000        -0.33800
C           4.01200        -1.80800        -1.24700
C           3.04200        -1.12000        -2.06900
H           5.01200        -1.44700        -1.05300
H           3.21700        -0.12900        -2.47800
H          -2.89000         0.24000        -0.97000
O          -5.60000        -0.36000        -0.40000
H          -5.76000         0.85000        -0.75000

D 2 3 7 8 F

