%mem=100GB 
%nprocshared=16 
# opt=modredundant b3lyp/6-311+g(d,p) scrf=(pcm, solvent=water) 

 NDI_155.pdb

-2  1
C          -2.56300        -2.99400        -0.40900
C          -2.25700        -1.55100        -0.22400
C          -3.30100        -0.60700        -0.08300
C          -4.65000        -1.02400        -0.11500
C          -4.99200        -2.45900        -0.30400
C          -0.94900        -1.13700        -0.21500
C          -2.96200         0.76400         0.10200
C          -1.59500         1.18800         0.12300
C          -0.56100         0.23200        -0.07200
C          -1.32800         2.61600         0.44600
C          -3.77700         3.11500         0.50800
C          -4.03500         1.67900         0.26800
C          -5.35600         1.25200         0.23000
C          -5.67200        -0.09800         0.03600
H          -6.69900        -0.44200         0.00800
H          -6.13300         1.99700         0.36100
H          -0.19000        -1.89500        -0.36900
N          -2.43200         3.47600         0.60800
N          -3.91600        -3.35300        -0.43800
O          -1.69500        -3.84700        -0.53200
O          -6.14900        -2.85000        -0.34000
O          -4.67600         3.93800         0.62900
O          -0.21200         3.09700         0.59600
C          -2.11100         4.87500         0.91200
H          -1.54000         4.93100         1.84000
H          -1.50000         5.29900         0.11100
H          -3.05000         5.41400         1.00300
C          -4.20600        -4.77900        -0.62500
H          -3.75900        -5.12600        -1.55900
H          -3.77500        -5.35500         0.19600
H          -5.28600        -4.89700        -0.64900
C           0.87600         0.48200        -0.17800
C           1.95800        -0.33700         0.08300
S           1.42900         2.11400        -0.55500
C           3.19900         0.32100        -0.02100
H           1.85300        -1.38000         0.33200
C           3.11100         1.67100        -0.37300
O           4.42600        -0.22900         0.18400
C           4.18900         2.59200        -0.59700
C           4.48700        -1.63700         0.40000
C           4.09900         3.94400        -0.92500
S           5.88600         2.13100        -0.48600
H           5.54700        -1.88500         0.46000
H           3.99600        -1.91600         1.34000
H           4.02500        -2.18500        -0.42900
C           5.35700         4.59100        -1.08300
O           2.87300         4.51200        -1.06600
C           6.40300         3.73200        -0.87500
H           5.48100         5.63500        -1.33600
C           2.81200         5.90200        -1.36700
H           7.45900         3.95700        -0.92800
H           3.28800         6.12200        -2.33100
H           1.75300         6.15200        -1.42100
H           3.28900         6.50000        -0.58100

D 8 9 32 33 F

