%mem=100GB 
%nprocshared=16 
# opt=modredundant b3lyp/6-311+g(d,p) scrf=(pcm, solvent=water) 

 NDI_-90.pdb

-2  1
C          -2.56300        -2.99400        -0.40900
C          -2.25700        -1.55100        -0.22400
C          -3.30100        -0.60700        -0.08300
C          -4.65000        -1.02400        -0.11500
C          -4.99200        -2.45900        -0.30400
C          -0.94900        -1.13700        -0.21500
C          -2.96200         0.76400         0.10200
C          -1.59500         1.18800         0.12300
C          -0.56100         0.23200        -0.07200
C          -1.32800         2.61600         0.44600
C          -3.77700         3.11500         0.50800
C          -4.03500         1.67900         0.26800
C          -5.35600         1.25200         0.23000
C          -5.67200        -0.09800         0.03600
H          -6.69900        -0.44200         0.00800
H          -6.13300         1.99700         0.36100
H          -0.19000        -1.89500        -0.36900
N          -2.43200         3.47600         0.60800
N          -3.91600        -3.35300        -0.43800
O          -1.69500        -3.84700        -0.53200
O          -6.14900        -2.85000        -0.34000
O          -4.67600         3.93800         0.62900
O          -0.21200         3.09700         0.59600
C          -2.11100         4.87500         0.91200
H          -1.54000         4.93100         1.84000
H          -1.50000         5.29900         0.11100
H          -3.05000         5.41400         1.00300
C          -4.20600        -4.77900        -0.62500
H          -3.75900        -5.12600        -1.55900
H          -3.77500        -5.35500         0.19600
H          -5.28600        -4.89700        -0.64900
C           0.87600         0.48200        -0.17800
C           1.66900         0.74500        -1.27800
S           1.87900         0.29800         1.26100
C           3.04500         0.80300        -0.97900
H           1.26500         0.89800        -2.26600
C           3.35300         0.59300         0.36800
O           4.05400         1.03900        -1.85900
C           4.64700         0.63300         0.98900
C           3.69600         1.39000        -3.19300
C           4.95500         0.40000         2.32800
S           6.12600         1.00100         0.10600
H           4.63100         1.61400        -3.70500
H           3.19400         0.55800        -3.70000
H           3.04500         2.27200        -3.20900
C           6.34100         0.51500         2.63600
O           3.95500         0.09900         3.19700
C           7.08500         0.83400         1.53200
H           6.76300         0.36800         3.62000
C           4.30500        -0.16800         4.55100
H           8.15500         0.97900         1.48000
H           4.77200         0.70600         5.02100
H           3.37100        -0.39800         5.06300
H           4.98200        -1.02700         4.62400

D 8 9 32 33 F

