%mem=100GB 
%nprocshared=16 
# opt=modredundant b3lyp/6-311+g(d,p) scrf=(pcm, solvent=water) 

 NDI_-115.pdb

-2  1
C          -2.56300        -2.99400        -0.40900
C          -2.25700        -1.55100        -0.22400
C          -3.30100        -0.60700        -0.08300
C          -4.65000        -1.02400        -0.11500
C          -4.99200        -2.45900        -0.30400
C          -0.94900        -1.13700        -0.21500
C          -2.96200         0.76400         0.10200
C          -1.59500         1.18800         0.12300
C          -0.56100         0.23200        -0.07200
C          -1.32800         2.61600         0.44600
C          -3.77700         3.11500         0.50800
C          -4.03500         1.67900         0.26800
C          -5.35600         1.25200         0.23000
C          -5.67200        -0.09800         0.03600
H          -6.69900        -0.44200         0.00800
H          -6.13300         1.99700         0.36100
H          -0.19000        -1.89500        -0.36900
N          -2.43200         3.47600         0.60800
N          -3.91600        -3.35300        -0.43800
O          -1.69500        -3.84700        -0.53200
O          -6.14900        -2.85000        -0.34000
O          -4.67600         3.93800         0.62900
O          -0.21200         3.09700         0.59600
C          -2.11100         4.87500         0.91200
H          -1.54000         4.93100         1.84000
H          -1.50000         5.29900         0.11100
H          -3.05000         5.41400         1.00300
C          -4.20600        -4.77900        -0.62500
H          -3.75900        -5.12600        -1.55900
H          -3.77500        -5.35500         0.19600
H          -5.28600        -4.89700        -0.64900
C           0.87600         0.48200        -0.17800
C           1.75000         0.30200        -1.23300
S           1.76500         0.95700         1.26900
C           3.09600         0.54300        -0.89600
H           1.42300         0.01400        -2.21900
C           3.30000         0.92400         0.43400
O           4.16800         0.44000        -1.72600
C           4.54000         1.27700         1.06500
C           3.91100         0.19000        -3.10500
C           4.74600         1.63400         2.39600
S           6.07900         1.31500         0.20700
H           4.88100         0.22400        -3.60200
H           3.46300        -0.80100        -3.25200
H           3.25000         0.95500        -3.53000
C           6.10000         1.93100         2.71800
O           3.68400         1.67400         3.24400
C           6.92400         1.79800         1.63300
H           6.44600         2.22500         3.70000
C           3.93000         2.00800         4.60600
H           7.99300         1.95800         1.59600
H           4.34600         3.01900         4.69800
H           2.96200         1.96800         5.10500
H           4.61200         1.28900         5.07500

D 8 9 32 33 F

