%mem=10GB 
%nprocshared=8 
# opt=modredundant wb97xd/6-311+g(d,p) 

 NDI_120.pdb

0  1
C          -2.56300        -2.99400        -0.40900
C          -2.25700        -1.55100        -0.22400
C          -3.30100        -0.60700        -0.08300
C          -4.65000        -1.02400        -0.11500
C          -4.99200        -2.45900        -0.30400
C          -0.94900        -1.13700        -0.21500
C          -2.96200         0.76400         0.10200
C          -1.59500         1.18800         0.12300
C          -0.56100         0.23200        -0.07200
C          -1.32800         2.61600         0.44600
C          -3.77700         3.11500         0.50800
C          -4.03500         1.67900         0.26800
C          -5.35600         1.25200         0.23000
C          -5.67200        -0.09800         0.03600
H          -6.69900        -0.44200         0.00800
H          -6.13300         1.99700         0.36100
H          -0.19000        -1.89500        -0.36900
N          -2.43200         3.47600         0.60800
N          -3.91600        -3.35300        -0.43800
O          -1.69500        -3.84700        -0.53200
O          -6.14900        -2.85000        -0.34000
O          -4.67600         3.93800         0.62900
O          -0.21200         3.09700         0.59600
C          -2.11100         4.87500         0.91200
H          -1.54000         4.93100         1.84000
H          -1.50000         5.29900         0.11100
H          -3.05000         5.41400         1.00300
C          -4.20600        -4.77900        -0.62500
H          -3.75900        -5.12600        -1.55900
H          -3.77500        -5.35500         0.19600
H          -5.28600        -4.89700        -0.64900
C           0.87600         0.48200        -0.17800
C           1.93100         0.03100         0.59100
S           1.44900         1.65600        -1.36300
C           3.16900         0.60400         0.24000
H           1.81200        -0.69700         1.37700
C           3.10500         1.51400        -0.82100
O           4.37100         0.35400         0.82400
C           4.19100         2.22500        -1.43400
C           4.42400        -0.68000         1.80200
C           4.12300         3.14900        -2.47500
S           5.87000         2.02900        -0.93700
H           5.47400        -0.77500         2.08200
H           3.83500        -0.41800         2.68900
H           4.06300        -1.63200         1.39400
C           5.38400         3.68400        -2.86400
O           2.91400         3.45000        -3.01700
C           6.40900         3.16800        -2.11800
H           5.52300         4.41100        -3.65100
C           2.87100         4.42300        -4.05500
H           7.46200         3.40000        -2.19900
H           3.44800         4.09700        -4.92900
H           1.82200         4.52200        -4.33100
H           3.25100         5.39100        -3.70800

D 8 9 32 33 F

