%mem=10GB
%nprocshared=4
# opt=modredundant b3lyp/6-311+g(d,p)

 OBT_60.pdb

0  1
C          -0.15900        -2.15700         0.00200
C           0.52400        -2.90900        -0.94400
C           0.58900        -4.30000        -0.65000
C          -0.04600        -4.60800         0.52000
S          -0.73000        -3.22000         1.28500
O           1.05900        -2.29300        -2.03500
H           1.07800        -5.03500        -1.27300
C          -0.40000        -0.73700         0.00200
C          -1.62000        -0.07300         0.00100
C          -1.52000         1.33900         0.00100
C          -0.21700         1.78900         0.00100
S           0.90300         0.44500         0.00100
O          -2.77500        -0.79500         0.00100
H          -2.37200         2.00300         0.00100
C           1.75400        -3.09400        -2.99000
H           1.08700        -3.85200        -3.41300
H           2.60900        -3.59300        -2.52100
C          -4.01400        -0.08800         0.00100
H          -4.09500         0.54300        -0.89100
H          -4.09600         0.54400         0.89200
C           0.26000         3.15100         0.00100
C           1.56000         3.60700         0.00200
C           1.63100         5.02200         0.00100
C           0.39800         5.66200        -0.00100
C           0.47400         7.08100        -0.00200
C           1.77200         7.50600         0.00000
S          -0.89900         4.49600        -0.00200
S           2.92600         6.19100         0.00300
H           2.41800         2.94800         0.00400
H          -0.37400         7.75200        -0.00300
H          -0.15100        -5.57900         0.97900
H           2.13600         8.52200         0.00000
H          -4.72900        -0.67600         0.03400
H           2.18900        -2.79800        -3.80700

D 5 1 8 9 F

