%mem=10GB
%nprocshared=4
# opt=modredundant b3lyp/6-311+g(d,p)

 OBT_-120.pdb

0  1
C          -0.15900        -2.15700         0.00200
C          -0.55600        -3.09300         0.94800
C          -0.15800        -4.42700         0.65400
C           0.54300        -4.50800        -0.51600
S           0.73100        -2.97200        -1.28100
O          -1.26400        -2.68700         2.03900
H          -0.37800        -5.28200         1.27700
C          -0.40000        -0.73700         0.00200
C          -1.62000        -0.07300         0.00100
C          -1.52000         1.33900         0.00100
C          -0.21700         1.78900         0.00100
S           0.90300         0.44500         0.00100
O          -2.77500        -0.79500         0.00100
H          -2.37200         2.00300         0.00100
C          -1.65600        -3.67300         2.99400
H          -0.77600        -4.16800         3.41700
H          -2.29800        -4.42600         2.52500
C          -4.01400        -0.08800         0.00100
H          -4.09500         0.54300        -0.89100
H          -4.09600         0.54400         0.89200
C           0.26000         3.15100         0.00100
C           1.56000         3.60700         0.00200
C           1.63100         5.02200         0.00100
C           0.39800         5.66200        -0.00100
C           0.47400         7.08100        -0.00200
C           1.77200         7.50600         0.00000
S          -0.89900         4.49600        -0.00200
S           2.92600         6.19100         0.00300
H           2.41800         2.94800         0.00400
H          -0.37400         7.75200        -0.00300
H           0.96200        -5.39000        -0.97500
H           2.13600         8.52200         0.00000
H          -4.72900        -0.67600         0.03400
H          -2.16400        -3.53700         3.81100

D 5 1 8 9 F

