%mem=10GB
%nprocshared=4
# opt=modredundant b3lyp/6-311+g(d,p)

 OBT_110.pdb

0  1
C          -0.15900        -2.15700         0.00200
C          -0.38300        -3.06300        -1.02600
C          -0.03700        -4.40600        -0.70700
C           0.45000        -4.52400         0.56400
S           0.50000        -3.01100         1.39400
O          -0.89400        -2.62400        -2.21000
H          -0.14500        -5.24300        -1.38300
C          -0.40000        -0.73700         0.00200
C          -1.62000        -0.07300         0.00100
C          -1.52000         1.33900         0.00100
C          -0.21700         1.78900         0.00100
S           0.90300         0.44500         0.00100
O          -2.77500        -0.79500         0.00100
H          -2.37200         2.00300         0.00100
C          -1.11400        -3.58100        -3.24600
H          -1.82500        -4.34600        -2.91700
H          -0.17300        -4.06500        -3.52600
C          -4.01400        -0.08800         0.00100
H          -4.09500         0.54300        -0.89100
H          -4.09600         0.54400         0.89200
C           0.26000         3.15100         0.00100
C           1.56000         3.60700         0.00200
C           1.63100         5.02200         0.00100
C           0.39800         5.66200        -0.00100
C           0.47400         7.08100        -0.00200
C           1.77200         7.50600         0.00000
S          -0.89900         4.49600        -0.00200
S           2.92600         6.19100         0.00300
H           2.41800         2.94800         0.00400
H          -0.37400         7.75200        -0.00300
H           0.78600        -5.42000         1.06300
H           2.13600         8.52200         0.00000
H          -4.72900        -0.67600         0.03400
H          -1.46600        -3.41900        -4.13700

D 5 1 8 9 F

