%mem=10GB
%nprocshared=4
# opt=modredundant b3lyp/6-311+g(d,p)

 OBT_-50.pdb

0  1
C          -0.15900        -2.15700         0.00200
C           0.67600        -2.88300         0.84000
C           0.69200        -4.28200         0.58100
C          -0.13000        -4.62200        -0.45600
S          -0.93800        -3.25500        -1.13300
O           1.38800        -2.23700         1.80600
H           1.28300        -5.00000         1.13200
C          -0.40000        -0.73700         0.00200
C          -1.62000        -0.07300         0.00100
C          -1.52000         1.33900         0.00100
C          -0.21700         1.78900         0.00100
S           0.90300         0.44500         0.00100
O          -2.77500        -0.79500         0.00100
H          -2.37200         2.00300         0.00100
C           2.23800        -3.01200         2.65000
H           3.00000        -3.52700         2.05800
H           1.65300        -3.75600         3.20300
C          -4.01400        -0.08800         0.00100
H          -4.09500         0.54300        -0.89100
H          -4.09600         0.54400         0.89200
C           0.26000         3.15100         0.00100
C           1.56000         3.60700         0.00200
C           1.63100         5.02200         0.00100
C           0.39800         5.66200        -0.00100
C           0.47400         7.08100        -0.00200
C           1.77200         7.50600         0.00000
S          -0.89900         4.49600        -0.00200
S           2.92600         6.19100         0.00300
H           2.41800         2.94800         0.00400
H          -0.37400         7.75200        -0.00300
H          -0.31000        -5.60600        -0.86300
H           2.13600         8.52200         0.00000
H          -4.72900        -0.67600         0.03400
H           2.79700        -2.69500         3.37900

D 5 1 8 9 F

