%mem=10GB
%nprocshared=4
# opt=modredundant b3lyp/6-311+g(d,p)

 OBT_40.pdb

0  1
C          -0.15900        -2.15700         0.00200
C           0.81000        -2.86100        -0.70000
C           0.78600        -4.26600        -0.48100
C          -0.20300        -4.63500         0.38600
S          -1.11800        -3.28600         0.95400
O           1.67600        -2.18800        -1.50900
H           1.46400        -4.96900        -0.94400
C          -0.40000        -0.73700         0.00200
C          -1.62000        -0.07300         0.00100
C          -1.52000         1.33900         0.00100
C          -0.21700         1.78900         0.00100
S           0.90300         0.44500         0.00100
O          -2.77500        -0.79500         0.00100
H          -2.37200         2.00300         0.00100
C           2.66000        -2.94000        -2.21800
H           2.18200        -3.66600        -2.88400
H           3.31200        -3.47400        -1.51700
C          -4.01400        -0.08800         0.00100
H          -4.09500         0.54300        -0.89100
H          -4.09600         0.54400         0.89200
C           0.26000         3.15100         0.00100
C           1.56000         3.60700         0.00200
C           1.63100         5.02200         0.00100
C           0.39800         5.66200        -0.00100
C           0.47400         7.08100        -0.00200
C           1.77200         7.50600         0.00000
S          -0.89900         4.49600        -0.00200
S           2.92600         6.19100         0.00300
H           2.41800         2.94800         0.00400
H          -0.37400         7.75200        -0.00300
H          -0.44700        -5.62900         0.72700
H           2.13600         8.52200         0.00000
H          -4.72900        -0.67600         0.03400
H           3.34200        -2.60300        -2.82300

D 5 1 8 9 F

