%mem=10GB
%nprocshared=4
# opt=modredundant b3lyp/6-311+g(d,p)

 OBT_100.pdb

0  1
C          -0.15900        -2.15700         0.00200
C          -0.20200        -3.03300        -1.07500
C           0.08800        -4.38500        -0.74100
C           0.35100        -4.54100         0.59100
S           0.25400        -3.05300         1.46100
O          -0.50400        -2.55800        -2.31600
H           0.10000        -5.20100        -1.44900
C          -0.40000        -0.73700         0.00200
C          -1.62000        -0.07300         0.00100
C          -1.52000         1.33900         0.00100
C          -0.21700         1.78900         0.00100
S           0.90300         0.44500         0.00100
O          -2.77500        -0.79500         0.00100
H          -2.37200         2.00300         0.00100
C          -0.54100        -3.48300        -3.40100
H          -1.29500        -4.25600        -3.22100
H           0.43600        -3.96200        -3.53000
C          -4.01400        -0.08800         0.00100
H          -4.09500         0.54300        -0.89100
H          -4.09600         0.54400         0.89200
C           0.26000         3.15100         0.00100
C           1.56000         3.60700         0.00200
C           1.63100         5.02200         0.00100
C           0.39800         5.66200        -0.00100
C           0.47400         7.08100        -0.00200
C           1.77200         7.50600         0.00000
S          -0.89900         4.49600        -0.00200
S           2.92600         6.19100         0.00300
H           2.41800         2.94800         0.00400
H          -0.37400         7.75200        -0.00300
H           0.59900        -5.45100         1.11300
H           2.13600         8.52200         0.00000
H          -4.72900        -0.67600         0.03400
H          -0.73400        -3.29400        -4.33500

D 5 1 8 9 F

