%mem=100GB 
%nprocshared=16 
# mp2/aug-cc-pvdz 

 pgT2_TT_55.pdb

0  1
C           3.82000         0.34000         0.37000
C           2.46000         0.77000         0.56000
C           1.56000        -0.08000        -0.01000
C           3.93000        -0.81000        -0.31000
S           2.37000        -1.41000        -0.77000
H           4.83000        -1.33000        -0.58000
C           0.10000         0.02000         0.01000
S          -0.69000         1.48000        -0.57000
C          -2.25000         0.79000        -0.25000
C          -2.14000        -0.48000         0.24000
C          -0.79000        -0.93000         0.39000
H          -0.49000        -1.90000         0.78000
S          -3.70000        -1.17000         0.57000
C          -4.48000         0.29000         0.02000
C          -3.61000         1.24000        -0.38000
H          -5.55000         0.35000         0.02000
H          -3.90000         2.21000        -0.76000
H           2.17000         1.66000         1.10000
O           4.89000         1.02000         0.84000
H           4.63000         1.82000         1.26000

D 2 3 7 8 F

