%mem=100GB 
%nprocshared=16 
# mp2/aug-cc-pvdz 

 pgT2_TT_0.pdb

0  1
C          -3.83000         0.41000         0.00000
C          -2.47000         0.89000         0.00000
C          -1.56000        -0.11000         0.00000
C          -3.92000        -0.93000        -0.00000
S          -2.35000        -1.66000        -0.00000
H          -4.81000        -1.53000        -0.00000
C          -0.10000         0.00000         0.00000
S           0.67000         1.59000        -0.00000
C           2.24000         0.86000        -0.00000
C           2.15000        -0.50000         0.00000
C           0.81000        -1.00000         0.00000
H           0.55000        -2.05000         0.00000
S           3.73000        -1.23000        -0.00000
C           4.48000         0.34000        -0.00000
C           3.59000         1.35000        -0.00000
H           5.55000         0.42000        -0.00000
H           3.86000         2.40000        -0.00000
H          -2.21000         1.94000         0.00000
O          -4.91000         1.22000        -0.00000
H          -4.65000         2.13000         0.00000

D 2 3 7 8 F

