%mem=100GB 
%nprocshared=16 
# mp2/aug-cc-pvdz 

 pgT2_TT_60.pdb

0  1
C           3.82000         0.33000         0.40000
C           2.46000         0.74000         0.61000
C           1.57000        -0.07000        -0.01000
C           3.93000        -0.79000        -0.35000
S           2.37000        -1.36000        -0.84000
H           4.83000        -1.29000        -0.64000
C           0.10000         0.02000         0.01000
S          -0.70000         1.46000        -0.60000
C          -2.26000         0.78000        -0.26000
C          -2.14000        -0.48000         0.26000
C          -0.78000        -0.92000         0.42000
H          -0.49000        -1.87000         0.83000
S          -3.70000        -1.17000         0.60000
C          -4.48000         0.28000         0.02000
C          -3.61000         1.22000        -0.41000
H          -5.55000         0.34000         0.02000
H          -3.91000         2.18000        -0.80000
H           2.17000         1.59000         1.20000
O           4.89000         0.97000         0.92000
H           4.62000         1.75000         1.38000

D 2 3 7 8 F

