%mem=100GB 
%nprocshared=16 
# mp2/aug-cc-pvdz 

 pgT2_TT_-20.pdb

0  1
C          -3.82000         0.41000         0.15000
C          -2.47000         0.87000         0.21000
C          -1.56000        -0.11000         0.00000
C          -3.92000        -0.91000        -0.11000
S          -2.35000        -1.63000        -0.30000
H          -4.82000        -1.50000        -0.20000
C          -0.10000        -0.00000        -0.01000
S           0.67000         1.56000        -0.25000
C           2.24000         0.84000        -0.10000
C           2.15000        -0.50000         0.10000
C           0.81000        -0.99000         0.16000
H           0.54000        -2.02000         0.33000
S           3.72000        -1.22000         0.24000
C           4.47000         0.34000         0.01000
C           3.59000         1.34000        -0.16000
H           5.55000         0.41000         0.02000
H           3.87000         2.37000        -0.31000
H          -2.20000         1.90000         0.43000
O          -4.90000         1.20000         0.34000
H          -4.64000         2.09000         0.50000

D 2 3 7 8 F

