%mem=100GB 
%nprocshared=16 
# mp2/aug-cc-pvdz 

 pgT2_TT_10.pdb

0  1
C          -3.83000         0.41000        -0.08000
C          -2.47000         0.89000        -0.11000
C          -1.56000        -0.11000        -0.00000
C          -3.92000        -0.93000         0.06000
S          -2.35000        -1.65000         0.15000
H          -4.81000        -1.52000         0.10000
C          -0.10000         0.00000         0.01000
S           0.67000         1.58000         0.13000
C           2.24000         0.85000         0.05000
C           2.15000        -0.50000        -0.05000
C           0.81000        -1.00000        -0.08000
H           0.54000        -2.04000        -0.17000
S           3.73000        -1.23000        -0.12000
C           4.47000         0.34000        -0.01000
C           3.59000         1.35000         0.08000
H           5.55000         0.42000        -0.01000
H           3.86000         2.39000         0.16000
H          -2.21000         1.93000        -0.22000
O          -4.91000         1.22000        -0.17000
H          -4.65000         2.12000        -0.26000

D 2 3 7 8 F

