%mem=100GB 
%nprocshared=16 
# mp2/aug-cc-pvdz 

 pgT2_TT_-100.pdb

0  1
C           3.78000         0.51000         0.43000
C           2.40000         0.69000         0.77000
C           1.57000         0.03000        -0.08000
C           3.97000        -0.28000        -0.64000
S           2.46000        -0.83000        -1.29000
H           4.91000        -0.56000        -1.09000
C           0.09000        -0.02000        -0.02000
S          -0.73000        -1.40000         0.68000
C          -2.27000        -0.66000         0.38000
C          -2.13000         0.56000        -0.20000
C          -0.76000         0.94000        -0.44000
H          -0.44000         1.86000        -0.90000
S          -3.67000         1.31000        -0.49000
C          -4.49000        -0.07000         0.19000
C          -3.64000        -1.04000         0.61000
H          -5.56000        -0.09000         0.24000
H          -3.96000        -1.96000         1.06000
H           2.04000         1.27000         1.60000
O           4.80000         1.08000         1.12000
H           4.48000         1.57000         1.85000

D 2 3 7 8 F

