%mem=100GB 
%nprocshared=16 
# mp2/aug-cc-pvdz 

 pgT2_TT_110.pdb

0  1
C           3.77000         0.61000        -0.35000
C           2.38000         0.84000        -0.62000
C           1.57000         0.02000         0.08000
C           3.98000        -0.38000         0.54000
S           2.48000        -1.07000         1.08000
H           4.93000        -0.75000         0.90000
C           0.09000        -0.02000         0.03000
S          -0.74000        -1.39000        -0.70000
C          -2.28000        -0.64000        -0.39000
C          -2.12000         0.57000         0.23000
C          -0.76000         0.93000         0.47000
H          -0.43000         1.83000         0.95000
S          -3.66000         1.31000         0.54000
C          -4.49000        -0.05000        -0.18000
C          -3.64000        -1.01000        -0.62000
H          -5.56000        -0.05000        -0.22000
H          -3.97000        -1.92000        -1.10000
H           2.01000         1.58000        -1.32000
O           4.78000         1.31000        -0.92000
H           4.44000         1.95000        -1.53000

D 2 3 7 8 F

