%mem=100GB 
%nprocshared=16 
# mp2/aug-cc-pvdz 

 pgT2_TT_-170.pdb

0  1
C           3.76000         0.77000         0.04000
C           2.37000         1.09000         0.12000
C           1.57000         0.00000         0.02000
C           4.00000        -0.54000        -0.12000
S           2.52000        -1.44000        -0.19000
H           4.95000        -1.04000        -0.20000
C           0.10000        -0.02000         0.03000
S          -0.78000        -1.54000         0.15000
C          -2.30000        -0.70000         0.07000
C          -2.11000         0.64000        -0.04000
C          -0.74000         1.04000        -0.07000
H          -0.40000         2.06000        -0.17000
S          -3.63000         1.48000        -0.12000
C          -4.49000        -0.03000         0.00000
C          -3.68000        -1.10000         0.09000
H          -5.57000        -0.03000        -0.01000
H          -4.03000        -2.12000         0.18000
H           2.00000         2.10000         0.27000
O           4.75000         1.69000         0.12000
H           4.40000         2.55000         0.26000

D 2 3 7 8 F

