%mem=100GB 
%nprocshared=16 
# mp2/aug-cc-pvdz 

 pgT2_TT_-155.pdb

0  1
C           3.76000         0.75000         0.11000
C           2.37000         1.06000         0.27000
C           1.57000        -0.00000         0.02000
C           3.99000        -0.52000        -0.25000
S           2.50000        -1.40000        -0.43000
H           4.94000        -1.00000        -0.42000
C           0.10000        -0.03000         0.04000
S          -0.78000        -1.52000         0.34000
C          -2.29000        -0.69000         0.17000
C          -2.11000         0.63000        -0.09000
C          -0.73000         1.02000        -0.17000
H          -0.39000         2.01000        -0.41000
S          -3.62000         1.46000        -0.26000
C          -4.49000        -0.03000         0.03000
C          -3.67000        -1.08000         0.24000
H          -5.56000        -0.03000         0.02000
H          -4.03000        -2.08000         0.44000
H           2.00000         2.03000         0.59000
O           4.76000         1.65000         0.32000
H           4.42000         2.48000         0.60000

D 2 3 7 8 F

