%mem=100GB 
%nprocshared=16 
# mp2/aug-cc-pvdz 

 pgT2_TT_-115.pdb

0  1
C           3.77000         0.64000         0.32000
C           2.37000         0.89000         0.57000
C           1.57000         0.01000        -0.08000
C           3.98000        -0.41000        -0.49000
S           2.49000        -1.14000        -0.99000
H           4.93000        -0.80000        -0.82000
C           0.10000        -0.03000        -0.03000
S          -0.75000        -1.40000         0.68000
C          -2.28000        -0.64000         0.37000
C          -2.12000         0.58000        -0.22000
C          -0.75000         0.94000        -0.45000
H          -0.43000         1.85000        -0.93000
S          -3.66000         1.33000        -0.52000
C          -4.49000        -0.04000         0.17000
C          -3.65000        -1.01000         0.60000
H          -5.56000        -0.05000         0.21000
H          -3.98000        -1.93000         1.05000
H           2.00000         1.67000         1.22000
O           4.77000         1.38000         0.84000
H           4.43000         2.06000         1.40000

D 2 3 7 8 F

