%mem=100GB 
%nprocshared=16 
# mp2/aug-cc-pvdz 

 pgT2_TT_-120.pdb

0  1
C           3.77000         0.67000         0.29000
C           2.37000         0.92000         0.53000
C           1.57000         0.01000        -0.07000
C           3.99000        -0.43000        -0.45000
S           2.49000        -1.19000        -0.91000
H           4.93000        -0.84000        -0.76000
C           0.10000        -0.03000        -0.03000
S          -0.75000        -1.42000         0.64000
C          -2.28000        -0.65000         0.35000
C          -2.12000         0.58000        -0.21000
C          -0.75000         0.95000        -0.43000
H          -0.42000         1.87000        -0.88000
S          -3.65000         1.35000        -0.50000
C          -4.49000        -0.04000         0.15000
C          -3.65000        -1.02000         0.56000
H          -5.56000        -0.04000         0.19000
H          -3.98000        -1.95000         0.99000
H           2.00000         1.74000         1.13000
O           4.77000         1.44000         0.78000
H           4.42000         2.15000         1.29000

D 2 3 7 8 F

