%mem=100GB 
%nprocshared=16 
# mp2/aug-cc-pvdz 

 pgT2_TT_95.pdb

0  1
C          -3.79000        -0.41000        -0.50000
C          -2.41000        -0.52000        -0.88000
C          -1.57000        -0.04000         0.07000
C          -3.97000         0.14000         0.71000
S          -2.45000         0.55000         1.44000
H          -4.90000         0.33000         1.22000
C          -0.09000         0.01000         0.01000
S           0.73000         1.47000        -0.53000
C           2.27000         0.70000        -0.32000
C           2.13000        -0.58000         0.14000
C           0.77000        -0.98000         0.33000
H           0.45000        -1.95000         0.68000
S           3.67000        -1.34000         0.35000
C           4.49000         0.11000        -0.18000
C           3.64000         1.11000        -0.50000
H           5.56000         0.13000        -0.23000
H           3.95000         2.07000        -0.85000
H          -2.07000        -0.93000        -1.82000
O          -4.82000        -0.82000        -1.28000
H          -4.51000        -1.15000        -2.11000

D 2 3 7 8 F

