%mem=100GB 
%nprocshared=8 
# opt=modredundant hf/aug-cc-pvdz 

 pBTTT_50.pdb

0  1
C          -4.25000        -1.36000        -0.21000
C          -2.93000        -0.95000        -0.61000
C          -1.97000        -2.05000        -0.62000
C          -2.66000         0.47000        -0.96000
C          -4.33000        -2.76000         0.10000
H          -5.10000        -0.70000        -0.14000
S          -2.80000        -3.56000        -0.11000
H          -5.23000        -3.27000         0.41000
C          -0.56000        -2.13000        -0.97000
S           0.64800        -0.98800        -0.30600
C           1.95200        -1.73900        -1.16000
C           1.51800        -2.87300        -1.93600
C           0.11000        -3.11300        -1.82400
H          -0.36500        -4.00600        -2.19800
S           2.78400        -4.02700        -2.19600
C           3.93000        -3.03200        -1.29600
C           3.32300        -1.82800        -0.77800
H           4.91100        -3.39000        -1.01600
H           3.77300        -1.23800         0.01500
H          -3.55000         1.09000        -0.83000
H          -2.35000         0.56000        -2.00000
H          -1.88000         0.89000        -0.31000

D 2 3 9 10 F

