%mem=10GB 
%nprocshared=8 
# opt=modredundant b3lyp/6-311+g(d,p) 

 pBTTT_160.pdb

0  1
C          -4.25000        -1.36000        -0.21000
C          -2.93000        -0.95000        -0.61000
C          -1.97000        -2.05000        -0.62000
C          -2.66000         0.47000        -0.96000
C          -4.33000        -2.76000         0.10000
H          -5.10000        -0.70000        -0.14000
S          -2.80000        -3.56000        -0.11000
H          -5.23000        -3.27000         0.41000
C          -0.56000        -2.13000        -0.97000
S           0.48400        -3.46900        -0.40100
C           1.87600        -2.84000        -1.21300
C           1.58600        -1.63500        -1.94700
C           0.21500        -1.23500        -1.83200
H          -0.22300        -0.45700        -2.43800
S           2.66400        -1.38900        -3.28100
C           3.54300        -2.87000        -2.89400
C           2.98200        -3.55900        -1.75500
H           4.28600        -3.29200        -3.55600
H           3.19800        -4.60100        -1.53400
H          -3.55000         1.09000        -0.83000
H          -2.35000         0.56000        -2.00000
H          -1.88000         0.89000        -0.31000

D 2 3 9 10 F

