%mem=10GB 
%nprocshared=8 
# opt=modredundant b3lyp/6-311+g(d,p) 

 pBTTT_5.pdb

0  1
C          -4.25000        -1.36000        -0.21000
C          -2.93000        -0.95000        -0.61000
C          -1.97000        -2.05000        -0.62000
C          -2.66000         0.47000        -0.96000
C          -4.33000        -2.76000         0.10000
H          -5.10000        -0.70000        -0.14000
S          -2.80000        -3.56000        -0.11000
H          -5.23000        -3.27000         0.41000
C          -0.56000        -2.13000        -0.97000
S           0.39500        -0.67700        -1.39600
C           1.84000        -1.59600        -1.64300
C           1.64800        -3.00100        -1.38600
C           0.30600        -3.31100        -0.99000
H           0.01600        -4.27500        -0.60200
S           3.11300        -3.80200        -0.92300
C           4.02800        -2.30000        -1.07200
C           3.19200        -1.18400        -1.45200
H           5.04900        -2.20800        -0.73100
H           3.50100        -0.15000        -1.32900
H          -3.55000         1.09000        -0.83000
H          -2.35000         0.56000        -2.00000
H          -1.88000         0.89000        -0.31000

D 2 3 9 10 F

